 vasp.5.4.4.18Apr17-6-g9f103f2a35 (build Dec 09 2018 21:25:21) complex

 executed on IFC18.0.1.163_CrayMP date 2019.04.01  15:54:46

 INCAR:
 POTCAR:   PAW_PBE Si 05Jan2001

 POTCAR:   PAW_PBE Si 05Jan2001
   VRHFIN =Si: s2p2

   TITEL  = PAW_PBE Si 05Jan2001
   POMASS =   28.085; ZVAL   =    4.000    mass and valenz
   ENMAX  =  245.345; ENMIN  =  184.009 eV
   QCUT   =   -4.246; QGAM   =    8.493    optimization parameters

   Description
     l     E      TYP  RCUT    TYP  RCUT
     0   .000     23  1.900
     0   .000     23  1.900
     1   .000     23  1.900
     1   .000     23  1.900
     2   .000      7  1.900

 PAW_PBE Si 05Jan2001                   :

 POSCAR: Si2
  positions in direct lattice
 exchange correlation table for  LEXCH =        8
   RHO(1)=    0.500       N(1)  =     2000
   RHO(2)=  100.500       N(2)  =     4000

 ion  position               nearest neighbor table
   1  0.000  0.000  0.000-   2 2.65   2 2.65   2 2.65   2 2.65
   2  0.250  0.750  0.500-   1 2.65   1 2.65   1 2.65   1 2.65

  LATTYP: Found a body centered tetragonal cell.
 ALAT       =     5.0973920000
 C/A-ratio  =     0.5706400449

  Lattice vectors:

 A1 = (  -2.5486960000,   2.5486960000,   1.4543880000)
 A2 = (   2.5486960000,  -2.5486960000,   1.4543880000)
 A3 = (   2.5486960000,   2.5486960000,  -1.4543880000)

Analysis of symmetry for initial positions (statically):
 Subroutine PRICEL returns:
 Original cell was already a primitive cell.

 Routine SETGRP: Setting up the symmetry group for a
 body centered tetragonal supercell.

 Subroutine GETGRP returns: Found 16 space group operations
 (whereof  8 operations were pure point group operations)
 out of a pool of 16 trial point group operations.

The static configuration has the point symmetry D_2d.
 The point group associated with its full space group is D_4h.

Analysis of symmetry for dynamics (positions and initial velocities):
 Subroutine PRICEL returns:
 Original cell was already a primitive cell.

 Routine SETGRP: Setting up the symmetry group for a
 body centered tetragonal supercell.

 Subroutine GETGRP returns: Found 16 space group operations
 (whereof  8 operations were pure point group operations)
 out of a pool of 16 trial point group operations.

The dynamic configuration has the point symmetry D_2d.
 The point group associated with its full space group is D_4h.

 Subroutine INISYM returns: Found 16 space group operations
 (whereof  8 operations are pure point group operations),
 and found     1 'primitive' translations

 KPOINTS: Automatic kpoint scheme

Automatic generation of k-mesh.
Space group operators:
 irot       det(A)        alpha          n_x          n_y          n_z        tau_x        tau_y        tau_z
    1     1.000000     0.000001     1.000000     0.000000     0.000000     0.000000     0.000000     0.000000
    2    -1.000000    90.000000    -0.000000     0.000000    -1.000000     0.000000     0.000000     0.000000
    3     1.000000   180.000000    -0.000000    -0.000000    -1.000000     0.000000     0.000000     0.000000
    4    -1.000000    90.000000    -0.000000     0.000000     1.000000     0.000000     0.000000     0.000000
    5    -1.000000   179.999999     0.000000    -1.000000    -0.000000     0.000000     0.000000     0.000000
    6     1.000000   179.999999     0.707107     0.707107    -0.000000     0.000000     0.000000     0.000000
    7    -1.000000   179.999999     1.000000     0.000000     0.000000     0.000000     0.000000     0.000000
    8     1.000000   179.999999     0.707107    -0.707107     0.000000     0.000000     0.000000     0.000000
    9    -1.000000     0.000001     1.000000     0.000000     0.000000     0.250000     0.750000     0.500000
   10     1.000000    90.000000    -0.000000     0.000000    -1.000000     0.250000     0.750000     0.500000
   11    -1.000000   180.000000    -0.000000    -0.000000    -1.000000     0.250000     0.750000     0.500000
   12     1.000000    90.000000    -0.000000     0.000000     1.000000     0.250000     0.750000     0.500000
   13     1.000000   179.999999     0.000000    -1.000000    -0.000000     0.250000     0.750000     0.500000
   14    -1.000000   179.999999     0.707107     0.707107    -0.000000     0.250000     0.750000     0.500000
   15     1.000000   179.999999     1.000000     0.000000     0.000000     0.250000     0.750000     0.500000
   16    -1.000000   179.999999     0.707107    -0.707107     0.000000     0.250000     0.750000     0.500000

 Subroutine IBZKPT returns following result:

 Found     56 irreducible k-points:

 Following reciprocal coordinates:
            Coordinates               Weight
  0.062500  0.062500  0.062500    128.000000
  0.187500  0.062500  0.062500    256.000000
  0.312500  0.062500  0.062500    256.000000
  0.437500  0.062500  0.062500    128.000000
 -0.062500  0.062500  0.062500     64.000000
  0.187500  0.187500  0.062500    128.000000
  0.312500  0.187500  0.062500    256.000000
  0.437500  0.187500  0.062500    256.000000
 -0.437500  0.187500  0.062500    256.000000
 -0.312500  0.187500  0.062500    128.000000
 -0.187500  0.187500  0.062500    128.000000
 -0.062500  0.187500  0.062500    128.000000
  0.312500  0.312500  0.062500    128.000000
  0.437500  0.312500  0.062500    256.000000
 -0.437500  0.312500  0.062500    128.000000
 -0.312500  0.312500  0.062500    128.000000
 -0.187500  0.312500  0.062500    256.000000
 -0.062500  0.312500  0.062500    128.000000
  0.437500  0.437500  0.062500     64.000000
 -0.437500  0.437500  0.062500    128.000000
 -0.312500  0.437500  0.062500    256.000000
 -0.187500  0.437500  0.062500    256.000000
 -0.062500  0.437500  0.062500    128.000000
 -0.437500 -0.437500  0.062500    128.000000
 -0.312500 -0.437500  0.062500    256.000000
 -0.187500 -0.437500  0.062500    256.000000
 -0.062500 -0.437500  0.062500    128.000000
 -0.312500 -0.312500  0.062500    128.000000
 -0.187500 -0.312500  0.062500    256.000000
 -0.062500 -0.312500  0.062500    128.000000
 -0.187500 -0.187500  0.062500    128.000000
 -0.062500 -0.187500  0.062500    128.000000
 -0.062500 -0.062500  0.062500     32.000000
  0.187500  0.187500  0.187500    128.000000
  0.312500  0.187500  0.187500    128.000000
 -0.187500  0.187500  0.187500     64.000000
  0.312500  0.312500  0.187500     64.000000
 -0.312500  0.312500  0.187500    128.000000
 -0.187500  0.312500  0.187500    128.000000
 -0.437500  0.437500  0.187500    128.000000
 -0.312500  0.437500  0.187500    256.000000
 -0.187500  0.437500  0.187500    128.000000
 -0.437500 -0.437500  0.187500    128.000000
 -0.312500 -0.437500  0.187500    256.000000
 -0.187500 -0.437500  0.187500    128.000000
 -0.312500 -0.312500  0.187500    128.000000
 -0.187500 -0.312500  0.187500    128.000000
 -0.187500 -0.187500  0.187500     32.000000
 -0.312500  0.312500  0.312500     64.000000
 -0.437500  0.437500  0.312500    128.000000
 -0.312500  0.437500  0.312500    128.000000
 -0.437500 -0.437500  0.312500    128.000000
 -0.312500 -0.437500  0.312500    128.000000
 -0.312500 -0.312500  0.312500     32.000000
 -0.437500  0.437500  0.437500     64.000000
 -0.437500 -0.437500  0.437500     32.000000

 Following cartesian coordinates:
            Coordinates               Weight
  0.024522  0.024522  0.042973    128.000000
  0.024522  0.049045  0.085947    256.000000
  0.024522  0.073567  0.128920    256.000000
  0.024522  0.098089  0.171894    128.000000
  0.024522  0.000000  0.000000     64.000000
  0.049045  0.049045  0.128920    128.000000
  0.049045  0.073567  0.171894    256.000000
  0.049045  0.098089  0.214867    256.000000
  0.049045 -0.073567 -0.085947    256.000000
  0.049045 -0.049045 -0.042973    128.000000
  0.049045 -0.024522 -0.000000    128.000000
  0.049045  0.000000  0.042973    128.000000
  0.073567  0.073567  0.214867    128.000000
  0.073567  0.098089  0.257840    256.000000
  0.073567 -0.073567 -0.042973    128.000000
  0.073567 -0.049045  0.000000    128.000000
  0.073567 -0.024522  0.042973    256.000000
  0.073567  0.000000  0.085947    128.000000
  0.098089  0.098089  0.300814     64.000000
  0.098089 -0.073567  0.000000    128.000000
  0.098089 -0.049045  0.042973    256.000000
  0.098089 -0.024522  0.085947    256.000000
  0.098089  0.000000  0.128920    128.000000
 -0.073567 -0.073567 -0.300814    128.000000
 -0.073567 -0.049045 -0.257840    256.000000
 -0.073567 -0.024522 -0.214867    256.000000
 -0.073567  0.000000 -0.171894    128.000000
 -0.049045 -0.049045 -0.214867    128.000000
 -0.049045 -0.024522 -0.171894    256.000000
 -0.049045 -0.000000 -0.128920    128.000000
 -0.024522 -0.024522 -0.128920    128.000000
 -0.024522  0.000000 -0.085947    128.000000
  0.000000  0.000000 -0.042973     32.000000
  0.073567  0.073567  0.128920    128.000000
  0.073567  0.098089  0.171894    128.000000
  0.073567  0.000000 -0.000000     64.000000
  0.098089  0.098089  0.214867     64.000000
  0.098089 -0.024522  0.000000    128.000000
  0.098089 -0.000000  0.042973    128.000000
  0.122612 -0.049045  0.000000    128.000000
  0.122612 -0.024522  0.042973    256.000000
  0.122612  0.000000  0.085947    128.000000
 -0.049045 -0.049045 -0.300814    128.000000
 -0.049045 -0.024522 -0.257840    256.000000
 -0.049045  0.000000 -0.214867    128.000000
 -0.024522 -0.024522 -0.214867    128.000000
 -0.024522  0.000000 -0.171894    128.000000
 -0.000000  0.000000 -0.128920     32.000000
  0.122612  0.000000  0.000000     64.000000
  0.147134 -0.024522  0.000000    128.000000
  0.147134  0.000000  0.042973    128.000000
 -0.024522 -0.024522 -0.300814    128.000000
 -0.024522  0.000000 -0.257840    128.000000
 -0.000000  0.000000 -0.214867     32.000000
  0.171656  0.000000  0.000000     64.000000
  0.000000  0.000000 -0.300814     32.000000

 SYSTEM =  unknown system
 POSCAR =  Si2

 Startparameter for this run:
   NWRITE =      2    write-flag & timer
   PREC   = normal    normal or accurate (medium, high low for compatibility)
   ISTART =      0    job   : 0-new  1-cont  2-samecut
   ICHARG =      2    charge: 1-file 2-atom 10-const
   ISPIN  =      1    spin polarized calculation?
   LNONCOLLINEAR =      F non collinear calculations
   LSORBIT =      F    spin-orbit coupling
   INIWAV =      1    electr: 0-lowe 1-rand  2-diag
   LASPH  =      F    aspherical Exc in radial PAW
   METAGGA=      F    non-selfconsistent MetaGGA calc.

 Electronic Relaxation 1
   ENCUT  =  350.0 eV  25.72 Ry    5.07 a.u.   5.93  5.93  5.93*2*pi/ulx,y,z
   ENINI  =  350.0     initial cutoff
   ENAUG  =  322.1 eV  augmentation charge cutoff
   NELM   =     60;   NELMIN=  2; NELMDL= -5     # of ELM steps
   EDIFF  = 0.4E-03   stopping-criterion for ELM
   LREAL  =      F    real-space projection
   NLSPLINE    = F    spline interpolate recip. space projectors
   LCOMPAT=      F    compatible to vasp.4.4
   GGA_COMPAT  = T    GGA compatible to vasp.4.4-vasp.4.6
   LMAXPAW     = -100 max onsite density
   LMAXMIX     =    2 max onsite mixed and CHGCAR
   VOSKOWN=      0    Vosko Wilk Nusair interpolation
   ROPT   =    0.00000
 Ionic relaxation
   EDIFFG = -.1E-01   stopping-criterion for IOM
   NSW    =     15    number of steps for IOM
[...]
   0.02452234  0.09808938  0.17189361       0.016
   0.02452234  0.00000000 -0.00000000       0.008
   0.04904469  0.04904469  0.12892021       0.016
   0.04904469  0.07356703  0.17189361       0.031
   0.04904469  0.09808938  0.21486701       0.031
   0.04904469 -0.07356703 -0.08594680       0.031
   0.04904469 -0.04904469 -0.04297340       0.016
   0.04904469 -0.02452234  0.00000000       0.016
   0.04904469  0.00000000  0.04297340       0.016
   0.07356703  0.07356703  0.21486701       0.016
   0.07356703  0.09808938  0.25784041       0.031
   0.07356703 -0.07356703 -0.04297340       0.016
   0.07356703 -0.04904469 -0.00000000       0.016
   0.07356703 -0.02452234  0.04297340       0.031
   0.07356703 -0.00000000  0.08594680       0.016
   0.09808938  0.09808938  0.30081381       0.008
   0.09808938 -0.07356703  0.00000000       0.016
   0.09808938 -0.04904469  0.04297340       0.031
   0.09808938 -0.02452234  0.08594680       0.031
   0.09808938 -0.00000000  0.12892021       0.016
  -0.07356703 -0.07356703 -0.30081381       0.016
  -0.07356703 -0.04904469 -0.25784041       0.031
  -0.07356703 -0.02452234 -0.21486701       0.031
  -0.07356703  0.00000000 -0.17189361       0.016
  -0.04904469 -0.04904469 -0.21486701       0.016
  -0.04904469 -0.02452234 -0.17189361       0.031
  -0.04904469 -0.00000000 -0.12892021       0.016
  -0.02452234 -0.02452234 -0.12892021       0.016
  -0.02452234 -0.00000000 -0.08594680       0.016
  -0.00000000 -0.00000000 -0.04297340       0.004
   0.07356703  0.07356703  0.12892021       0.016
   0.07356703  0.09808938  0.17189361       0.016
   0.07356703  0.00000000  0.00000000       0.008
   0.09808938  0.09808938  0.21486701       0.008
   0.09808938 -0.02452234 -0.00000000       0.016
   0.09808938 -0.00000000  0.04297340       0.016
   0.12261172 -0.04904469  0.00000000       0.016
   0.12261172 -0.02452234  0.04297340       0.031
   0.12261172 -0.00000000  0.08594680       0.016
  -0.04904469 -0.04904469 -0.30081381       0.016
  -0.04904469 -0.02452234 -0.25784041       0.031
  -0.04904469  0.00000000 -0.21486701       0.016
  -0.02452234 -0.02452234 -0.21486701       0.016
  -0.02452234 -0.00000000 -0.17189361       0.016
   0.00000000  0.00000000 -0.12892021       0.004
   0.12261172  0.00000000 -0.00000000       0.008
   0.14713406 -0.02452234  0.00000000       0.016
   0.14713406  0.00000000  0.04297340       0.016
  -0.02452234 -0.02452234 -0.30081381       0.016
  -0.02452234  0.00000000 -0.25784041       0.016
   0.00000000  0.00000000 -0.21486701       0.004
   0.17165641 -0.00000000 -0.00000000       0.008
  -0.00000000  0.00000000 -0.30081381       0.004

 k-points in reciprocal lattice and weights: Automatic kpoint scheme
   0.06250000  0.06250000  0.06250000       0.016
   0.18750000  0.06250000  0.06250000       0.031
   0.31250000  0.06250000  0.06250000       0.031
   0.43750000  0.06250000  0.06250000       0.016
  -0.06250000  0.06250000  0.06250000       0.008
   0.18750000  0.18750000  0.06250000       0.016
   0.31250000  0.18750000  0.06250000       0.031
   0.43750000  0.18750000  0.06250000       0.031
  -0.43750000  0.18750000  0.06250000       0.031
  -0.31250000  0.18750000  0.06250000       0.016
  -0.18750000  0.18750000  0.06250000       0.016
  -0.06250000  0.18750000  0.06250000       0.016
   0.31250000  0.31250000  0.06250000       0.016
   0.43750000  0.31250000  0.06250000       0.031
  -0.43750000  0.31250000  0.06250000       0.016
  -0.31250000  0.31250000  0.06250000       0.016
  -0.18750000  0.31250000  0.06250000       0.031
  -0.06250000  0.31250000  0.06250000       0.016
   0.43750000  0.43750000  0.06250000       0.008
  -0.43750000  0.43750000  0.06250000       0.016
  -0.31250000  0.43750000  0.06250000       0.031
  -0.18750000  0.43750000  0.06250000       0.031
  -0.06250000  0.43750000  0.06250000       0.016
  -0.43750000 -0.43750000  0.06250000       0.016
  -0.31250000 -0.43750000  0.06250000       0.031
  -0.18750000 -0.43750000  0.06250000       0.031
  -0.06250000 -0.43750000  0.06250000       0.016
  -0.31250000 -0.31250000  0.06250000       0.016
  -0.18750000 -0.31250000  0.06250000       0.031
  -0.06250000 -0.31250000  0.06250000       0.016
  -0.18750000 -0.18750000  0.06250000       0.016
  -0.06250000 -0.18750000  0.06250000       0.016
  -0.06250000 -0.06250000  0.06250000       0.004
   0.18750000  0.18750000  0.18750000       0.016
   0.31250000  0.18750000  0.18750000       0.016
  -0.18750000  0.18750000  0.18750000       0.008
   0.31250000  0.31250000  0.18750000       0.008
  -0.31250000  0.31250000  0.18750000       0.016
  -0.18750000  0.31250000  0.18750000       0.016
  -0.43750000  0.43750000  0.18750000       0.016
  -0.31250000  0.43750000  0.18750000       0.031
  -0.18750000  0.43750000  0.18750000       0.016
  -0.43750000 -0.43750000  0.18750000       0.016
  -0.31250000 -0.43750000  0.18750000       0.031
  -0.18750000 -0.43750000  0.18750000       0.016
  -0.31250000 -0.31250000  0.18750000       0.016
  -0.18750000 -0.31250000  0.18750000       0.016
  -0.18750000 -0.18750000  0.18750000       0.004
  -0.31250000  0.31250000  0.31250000       0.008
  -0.43750000  0.43750000  0.31250000       0.016
  -0.31250000  0.43750000  0.31250000       0.016
  -0.43750000 -0.43750000  0.31250000       0.016
  -0.31250000 -0.43750000  0.31250000       0.016
  -0.31250000 -0.31250000  0.31250000       0.004
  -0.43750000  0.43750000  0.43750000       0.008
  -0.43750000 -0.43750000  0.43750000       0.004

 position of ions in fractional coordinates (direct lattice)
   0.00000000  0.00000000  0.00000000
   0.25000000  0.75000000  0.50000000

 position of ions in cartesian coordinates  (Angst):
   0.00000000  0.00000000  0.00000000
   2.54869600 -0.00000000  0.72719400

 k-point  1 :   0.0625 0.0625 0.0625  plane waves:     551
 k-point  2 :   0.1875 0.0625 0.0625  plane waves:     553
 k-point  3 :   0.3125 0.0625 0.0625  plane waves:     555
 k-point  4 :   0.4375 0.0625 0.0625  plane waves:     560
 k-point  5 :  -0.0625 0.0625 0.0625  plane waves:     557
 k-point  6 :   0.1875 0.1875 0.0625  plane waves:     544
 k-point  7 :   0.3125 0.1875 0.0625  plane waves:     558
 k-point  8 :   0.4375 0.1875 0.0625  plane waves:     555
 k-point  9 :  -0.4375 0.1875 0.0625  plane waves:     558
 k-point 10 :  -0.3125 0.1875 0.0625  plane waves:     564
 k-point 11 :  -0.1875 0.1875 0.0625  plane waves:     563
 k-point 12 :  -0.0625 0.1875 0.0625  plane waves:     559
 k-point 13 :   0.3125 0.3125 0.0625  plane waves:     557
 k-point 14 :   0.4375 0.3125 0.0625  plane waves:     562
 k-point 15 :  -0.4375 0.3125 0.0625  plane waves:     563
 k-point 16 :  -0.3125 0.3125 0.0625  plane waves:     560
 k-point 17 :  -0.1875 0.3125 0.0625  plane waves:     562
 k-point 18 :  -0.0625 0.3125 0.0625  plane waves:     561
 k-point 19 :   0.4375 0.4375 0.0625  plane waves:     560
 k-point 20 :  -0.4375 0.4375 0.0625  plane waves:     563
 k-point 21 :  -0.3125 0.4375 0.0625  plane waves:     571
 k-point 22 :  -0.1875 0.4375 0.0625  plane waves:     564
 k-point 23 :  -0.0625 0.4375 0.0625  plane waves:     559
 k-point 24 :  -0.4375-0.4375 0.0625  plane waves:     571
 k-point 25 :  -0.3125-0.4375 0.0625  plane waves:     567
 k-point 26 :  -0.1875-0.4375 0.0625  plane waves:     563
 k-point 27 :  -0.0625-0.4375 0.0625  plane waves:     555
 k-point 28 :  -0.3125-0.3125 0.0625  plane waves:     565
 k-point 29 :  -0.1875-0.3125 0.0625  plane waves:     555
 k-point 30 :  -0.0625-0.3125 0.0625  plane waves:     560
 k-point 31 :  -0.1875-0.1875 0.0625  plane waves:     561
 k-point 32 :  -0.0625-0.1875 0.0625  plane waves:     561
 k-point 33 :  -0.0625-0.0625 0.0625  plane waves:     549
 k-point 34 :   0.1875 0.1875 0.1875  plane waves:     555
 k-point 35 :   0.3125 0.1875 0.1875  plane waves:     552
 k-point 36 :  -0.1875 0.1875 0.1875  plane waves:     564
 k-point 37 :   0.3125 0.3125 0.1875  plane waves:     558
 k-point 38 :  -0.3125 0.3125 0.1875  plane waves:     572
 k-point 39 :  -0.1875 0.3125 0.1875  plane waves:     569
 k-point 40 :  -0.4375 0.4375 0.1875  plane waves:     567
 k-point 41 :  -0.3125 0.4375 0.1875  plane waves:     569
 k-point 42 :  -0.1875 0.4375 0.1875  plane waves:     572
 k-point 43 :  -0.4375-0.4375 0.1875  plane waves:     568
 k-point 44 :  -0.3125-0.4375 0.1875  plane waves:     567
 k-point 45 :  -0.1875-0.4375 0.1875  plane waves:     565
 k-point 46 :  -0.3125-0.3125 0.1875  plane waves:     568
 k-point 47 :  -0.1875-0.3125 0.1875  plane waves:     560
 k-point 48 :  -0.1875-0.1875 0.1875  plane waves:     573
 k-point 49 :  -0.3125 0.3125 0.3125  plane waves:     574
 k-point 50 :  -0.4375 0.4375 0.3125  plane waves:     564
 k-point 51 :  -0.3125 0.4375 0.3125  plane waves:     570
 k-point 52 :  -0.4375-0.4375 0.3125  plane waves:     565
 k-point 53 :  -0.3125-0.4375 0.3125  plane waves:     569
 k-point 54 :  -0.3125-0.3125 0.3125  plane waves:     556
 k-point 55 :  -0.4375 0.4375 0.4375  plane waves:     562
 k-point 56 :  -0.4375-0.4375 0.4375  plane waves:     568

 maximum and minimum number of plane-waves per node :       574      544

 maximum number of plane-waves:       574
 maximum index in each direction:
   IXMAX=    6   IYMAX=    6   IZMAX=    5
   IXMIN=   -6   IYMIN=   -6   IZMIN=   -6

 serial   3D FFT for wavefunctions
 parallel 3D FFT for charge:
    minimum data exchange during FFTs selected (reduces bandwidth)

 Broyden mixing: mesh for mixing (old mesh)
   NGX = 11   NGY = 11   NGZ = 11
  (NGX  = 36   NGY  = 36   NGZ  = 36)
  gives a total of   1331 points

 initial charge density was supplied:
 charge density of overlapping atoms calculated
 number of electron       8.0000000 magnetization
 keeping initial charge density in first step

 Maximum index for augmentation-charges          759 (set IRDMAX)

 First call to EWALD:  gamma=   0.528
 Maximum number of real-space cells 3x 3x 3
 Maximum number of reciprocal cells 3x 3x 3

--------------------------------------- Iteration      1(   1)  ---------------------------------------

 eigenvalue-minimisations  :   896
 total energy-change (2. order) : 0.6918712E-02  (-0.2596675E+03)
 number of electron       8.0000000 magnetization
 augmentation part        8.0000000 magnetization

 Free energy of the ion-electron system (eV)
  alpha Z        PSCENC =         3.56317761
  Ewald energy   TEWEN  =      -247.14060221
  -Hartree energ DENC   =        -3.87933083
  -exchange      EXHF   =         0.00000000
  -V(xc)+E(xc)   XCENC  =       -18.80614324
  PAW double counting   =        65.95520812      -30.76852678
  entropy T*S    EENTRO =        -0.01064389
  eigenvalues    EBANDS =        24.96252579
  atomic energy  EATOM  =       206.13125414
  Solvation  Ediel_sol  =         0.00000000
  free energy    TOTEN  =         0.00691871 eV

  energy without entropy =        0.01756260  energy(sigma->0) =        0.01224066

[...]

 eigenvalue-minimisations  :  1448
 total energy-change (2. order) :-0.9809033E+01  (-0.9568189E+01)
 number of electron       8.0000000 magnetization
 augmentation part        8.0000000 magnetization

[...]

 eigenvalue-minimisations  :  1216
 total energy-change (2. order) :-0.5689228E-06  (-0.5693726E-06)
 number of electron       8.0000005 magnetization
 augmentation part       -0.4776965 magnetization

 Broyden mixing:
  rms(total) = 0.14026E+00    rms(broyden)= 0.14025E+00
  rms(prec ) = 0.32947E+00
  weight for this iteration     100.00

[...]

 eigenvalues of (default mixing * dielectric matrix)
  average eigenvalue GAMMA=   2.5985
  2.5985

[...]

 Broyden mixing:
  rms(total) = 0.60875E-02    rms(broyden)= 0.60870E-02
  rms(prec ) = 0.17034E-01
  weight for this iteration     100.00

 eigenvalues of (default mixing * dielectric matrix)
  average eigenvalue GAMMA=   2.5427
  2.5427  2.5427

[...]

--------------------------------------- Iteration      1(   8)  ---------------------------------------

 eigenvalue-minimisations  :   736
 total energy-change (2. order) : 0.4695421E-04  (-0.5140683E-04)
 number of electron       8.0000005 magnetization
 augmentation part       -0.4846999 magnetization

 Free energy of the ion-electron system (eV)
  alpha Z        PSCENC =         3.56317761
  Ewald energy   TEWEN  =      -247.14060221
  -Hartree energ DENC   =        -3.79761221
  -exchange      EXHF   =         0.00000000
  -V(xc)+E(xc)   XCENC  =       -18.68119140
  PAW double counting   =        66.66672972      -31.48130186
  entropy T*S    EENTRO =        -0.02011041
  eigenvalues    EBANDS =        14.84080489
  atomic energy  EATOM  =       206.13125414
  Solvation  Ediel_sol  =         0.00000000
  free energy    TOTEN  =        -9.91885173 eV

  energy without entropy =       -9.89874132  energy(sigma->0) =       -9.90879652

 average (electrostatic) potential at core
  the test charge radii are     0.9892
  (the norm of the test charge is              1.0000)
       1 -83.1573       2 -83.1573

 E-fermi :   6.6431     XC(G=0): -10.0592     alpha+bet :-12.6936

 k-point     1 :       0.0625    0.0625    0.0625
  band No.  band energies     occupation
      1      -4.9217      2.00000
      2       2.7760      2.00000
      3       5.0913      2.00000
      4       6.1982      1.99834
      5      10.2255      0.00000
      6      10.6819      0.00000
      7      11.1499      0.00000
      8      13.1324      0.00000

[...]

 k-point    56 :      -0.4375   -0.4375    0.4375
  band No.  band energies     occupation
      1      -0.6668      2.00000
      2      -0.5587      2.00000
      3       1.4740      2.00000
      4       1.4740      2.00000
      5       7.6622      0.00000
      6      13.9556      0.00000
      7      16.4126      0.00000
      8      16.4126      0.00000

 soft charge-density along one line, spin component           1
         0         1         2         3         4         5         6         7         8         9
 total charge-density along one line

------------------------ aborting loop because EDIFF is reached ----------------------------------------

  FORCE on cell =-STRESS in cart. coord.  units (eV):
  Direction    XX          YY          ZZ          XY          YZ          ZX
  Alpha Z     3.56318     3.56318     3.56318
  Ewald     -80.17026   -80.17026   -86.80029    -0.00000     0.00000     0.00000
  Hartree     1.44125     1.44125     0.91918    -0.00000    -0.00000    -0.00000
  E(xc)     -24.23576   -24.23576   -24.12098    -0.00000    -0.00000    -0.00000
  Local     -19.91627   -19.91627   -10.87477    -0.00003    -0.00002    -0.00002
  n-local    76.18188    76.79587    74.10205     1.06480    -0.30055    -0.33300
  augment   -12.45051   -12.45051   -12.22700     0.00002     0.00002     0.00002
  Kinetic    50.06168    53.89944    52.58070     2.13516    -1.50999    -1.14030
  Fock        0.00000     0.00000     0.00000     0.00000     0.00000     0.00000
  Total      -3.29893    -3.29893    -2.85793     0.00000     0.00000     0.00000
  in kB    -139.86453  -139.86453  -121.16739     0.00000     0.00000     0.00000

 VOLUME and BASIS-vectors are now :
  energy-cutoff  :      350.00
  volume of cell :       37.79
      direct lattice vectors                 reciprocal lattice vectors
    -2.548696000  2.548696000  1.454388000    -0.000000000  0.196178752  0.343787215
     2.548696000 -2.548696000  1.454388000     0.196178752 -0.000000000  0.343787215
     2.548696000  2.548696000 -1.454388000     0.196178752  0.196178752 -0.000000000

  length of vectors
     3.886765629  3.886765629  3.886765629     0.395822879  0.395822879  0.277438651

 FORCES acting on ions
    electron-ion (+dipol)            ewald-force                    non-local-force                 convergence-correction
   0.210E-06 -.210E-06 0.330E-13   0.967E-14 -.281E-14 0.182E-14   -.274E-17 -.583E-16 0.447E-17   0.248E-07 -.248E-07 0.414E-15
   -.210E-06 0.210E-06 -.241E-13   -.963E-14 0.285E-14 -.123E-14   -.542E-18 0.550E-16 0.122E-17   -.248E-07 0.248E-07 0.513E-15
   -.194E-13 -.113E-14 0.885E-14   0.415E-16 0.415E-16 0.587E-15   -.329E-17 -.329E-17 0.569E-17   -.163E-15 -.141E-15 0.927E-15

 POSITION                                       TOTAL-FORCE (eV/Angst)
      0.00000      0.00000      0.00000         0.000000      0.000000     -0.000000
      2.54870     -0.00000      0.72719        -0.000000     -0.000000      0.000000
    total drift:                               -0.000000     -0.000000      0.000000

  FREE ENERGIE OF THE ION-ELECTRON SYSTEM (eV)
  free  energy   TOTEN  =        -9.91885173 eV

  energy  without entropy=       -9.89874132  energy(sigma->0) =       -9.90879652

 reached required accuracy - stopping structural energy minimisation
 writing wavefunctions