 vasp.5.4.4.18Apr17-6-g9f103f2a35 (build Dec 09 2018 21:25:21) complex

 executed on IFC18.0.1.163_CrayMP date 2019.04.01  15:51:32

 INCAR:
 POTCAR:   PAW_PBE Si 05Jan2001

 POTCAR:   PAW_PBE Si 05Jan2001
   VRHFIN =Si: s2p2

   TITEL  = PAW_PBE Si 05Jan2001
   POMASS =   28.085; ZVAL   =    4.000    mass and valenz
   ENMAX  =  245.345; ENMIN  =  184.009 eV
   QCUT   =   -4.246; QGAM   =    8.493    optimization parameters

   Description
     l     E      TYP  RCUT    TYP  RCUT
     0   .000     23  1.900
     0   .000     23  1.900
     1   .000     23  1.900
     1   .000     23  1.900
     2   .000      7  1.900

 PAW_PBE Si 05Jan2001                   :

 POSCAR: Si2
  positions in direct lattice
 exchange correlation table for  LEXCH =        8
   RHO(1)=    0.500       N(1)  =     2000
   RHO(2)=  100.500       N(2)  =     4000

 ion  position               nearest neighbor table
   1  0.000  0.000  0.000-   2 2.43   2 2.43   2 2.43   2 2.43   2 3.07   2 3.07   2 3.07   2 3.07

   2  0.250  0.750  0.500-   1 2.43   1 2.43   1 2.43   1 2.43   1 3.07   1 3.07   1 3.07   1 3.07

  LATTYP: Found a body centered tetragonal cell.
 ALAT       =     4.6686400000
 C/A-ratio  =     0.5706398437

  Lattice vectors:

 A1 = (  -2.3343200000,   2.3343200000,   1.3320560000)
 A2 = (   2.3343200000,  -2.3343200000,   1.3320560000)
 A3 = (   2.3343200000,   2.3343200000,  -1.3320560000)

Analysis of symmetry for initial positions (statically):
 Subroutine PRICEL returns:
 Original cell was already a primitive cell.

 Routine SETGRP: Setting up the symmetry group for a
 body centered tetragonal supercell.

 Subroutine GETGRP returns: Found 16 space group operations
 (whereof  8 operations were pure point group operations)
 out of a pool of 16 trial point group operations.

The static configuration has the point symmetry D_2d.
 The point group associated with its full space group is D_4h.

Analysis of symmetry for dynamics (positions and initial velocities):
 Subroutine PRICEL returns:
 Original cell was already a primitive cell.

 Routine SETGRP: Setting up the symmetry group for a
 body centered tetragonal supercell.

 Subroutine GETGRP returns: Found 16 space group operations
 (whereof  8 operations were pure point group operations)
 out of a pool of 16 trial point group operations.

The dynamic configuration has the point symmetry D_2d.
 The point group associated with its full space group is D_4h.

 Subroutine INISYM returns: Found 16 space group operations
 (whereof  8 operations are pure point group operations),
 and found     1 'primitive' translations

 KPOINTS: Automatic kpoint scheme

Automatic generation of k-mesh.
Space group operators:
 irot       det(A)        alpha          n_x          n_y          n_z        tau_x        tau_y        tau_z
    1     1.000000     0.000000     1.000000     0.000000     0.000000     0.000000     0.000000     0.000000
    2    -1.000000    90.000000     0.000000    -0.000000    -1.000000     0.000000     0.000000     0.000000
    3     1.000000   180.000000     0.000000    -0.000000     1.000000     0.000000     0.000000     0.000000
    4    -1.000000    90.000000    -0.000000     0.000000     1.000000     0.000000     0.000000     0.000000
    5    -1.000000   180.000000     0.000000    -1.000000     0.000000     0.000000     0.000000     0.000000
    6     1.000000   180.000000     0.707107     0.707107    -0.000000     0.000000     0.000000     0.000000
    7    -1.000000   180.000000     1.000000     0.000000     0.000000     0.000000     0.000000     0.000000
    8     1.000000   180.000000     0.707107    -0.707107     0.000000     0.000000     0.000000     0.000000
    9    -1.000000     0.000000     1.000000     0.000000     0.000000     0.250000     0.750000     0.500000
   10     1.000000    90.000000     0.000000    -0.000000    -1.000000     0.250000     0.750000     0.500000
   11    -1.000000   180.000000     0.000000    -0.000000     1.000000     0.250000     0.750000     0.500000
   12     1.000000    90.000000    -0.000000     0.000000     1.000000     0.250000     0.750000     0.500000
   13     1.000000   180.000000     0.000000    -1.000000     0.000000     0.250000     0.750000     0.500000
   14    -1.000000   180.000000     0.707107     0.707107    -0.000000     0.250000     0.750000     0.500000
   15     1.000000   180.000000     1.000000     0.000000     0.000000     0.250000     0.750000     0.500000
   16    -1.000000   180.000000     0.707107    -0.707107     0.000000     0.250000     0.750000     0.500000

 Subroutine IBZKPT returns following result:

 Found     56 irreducible k-points:

 Following reciprocal coordinates:
            Coordinates               Weight
  0.062500  0.062500  0.062500    128.000000
  0.187500  0.062500  0.062500    256.000000
  0.312500  0.062500  0.062500    256.000000
  0.437500  0.062500  0.062500    128.000000
 -0.062500  0.062500  0.062500     64.000000
  0.187500  0.187500  0.062500    128.000000
  0.312500  0.187500  0.062500    256.000000
  0.437500  0.187500  0.062500    256.000000
 -0.437500  0.187500  0.062500    256.000000
 -0.312500  0.187500  0.062500    128.000000
 -0.187500  0.187500  0.062500    128.000000
 -0.062500  0.187500  0.062500    128.000000
  0.312500  0.312500  0.062500    128.000000
  0.437500  0.312500  0.062500    256.000000
 -0.437500  0.312500  0.062500    128.000000
 -0.312500  0.312500  0.062500    128.000000
 -0.187500  0.312500  0.062500    256.000000
 -0.062500  0.312500  0.062500    128.000000
  0.437500  0.437500  0.062500     64.000000
 -0.437500  0.437500  0.062500    128.000000
 -0.312500  0.437500  0.062500    256.000000
 -0.187500  0.437500  0.062500    256.000000
 -0.062500  0.437500  0.062500    128.000000
 -0.437500 -0.437500  0.062500    128.000000
 -0.312500 -0.437500  0.062500    256.000000
 -0.187500 -0.437500  0.062500    256.000000
 -0.062500 -0.437500  0.062500    128.000000
 -0.312500 -0.312500  0.062500    128.000000
 -0.187500 -0.312500  0.062500    256.000000
 -0.062500 -0.312500  0.062500    128.000000
 -0.187500 -0.187500  0.062500    128.000000
 -0.062500 -0.187500  0.062500    128.000000
 -0.062500 -0.062500  0.062500     32.000000
  0.187500  0.187500  0.187500    128.000000
  0.312500  0.187500  0.187500    128.000000
 -0.187500  0.187500  0.187500     64.000000
  0.312500  0.312500  0.187500     64.000000
 -0.312500  0.312500  0.187500    128.000000
 -0.187500  0.312500  0.187500    128.000000
 -0.437500  0.437500  0.187500    128.000000
 -0.312500  0.437500  0.187500    256.000000
 -0.187500  0.437500  0.187500    128.000000
 -0.437500 -0.437500  0.187500    128.000000
 -0.312500 -0.437500  0.187500    256.000000
 -0.187500 -0.437500  0.187500    128.000000
 -0.312500 -0.312500  0.187500    128.000000
 -0.187500 -0.312500  0.187500    128.000000
 -0.187500 -0.187500  0.187500     32.000000
 -0.312500  0.312500  0.312500     64.000000
 -0.437500  0.437500  0.312500    128.000000
 -0.312500  0.437500  0.312500    128.000000
 -0.437500 -0.437500  0.312500    128.000000
 -0.312500 -0.437500  0.312500    128.000000
 -0.312500 -0.312500  0.312500     32.000000
 -0.437500  0.437500  0.437500     64.000000
 -0.437500 -0.437500  0.437500     32.000000

 Following cartesian coordinates:
            Coordinates               Weight
  0.026774  0.026774  0.046920    128.000000
  0.026774  0.053549  0.093840    256.000000
  0.026774  0.080323  0.140760    256.000000
  0.026774  0.107098  0.187680    128.000000
  0.026774  0.000000  0.000000     64.000000
  0.053549  0.053549  0.140760    128.000000
  0.053549  0.080323  0.187680    256.000000
  0.053549  0.107098  0.234600    256.000000
  0.053549 -0.080323 -0.093840    256.000000
  0.053549 -0.053549 -0.046920    128.000000
  0.053549 -0.026774  0.000000    128.000000
  0.053549  0.000000  0.046920    128.000000
  0.080323  0.080323  0.234600    128.000000
  0.080323  0.107098  0.281520    256.000000
  0.080323 -0.080323 -0.046920    128.000000
  0.080323 -0.053549  0.000000    128.000000
  0.080323 -0.026774  0.046920    256.000000
  0.080323  0.000000  0.093840    128.000000
  0.107098  0.107098  0.328440     64.000000
  0.107098 -0.080323  0.000000    128.000000
  0.107098 -0.053549  0.046920    256.000000
  0.107098 -0.026774  0.093840    256.000000
  0.107098  0.000000  0.140760    128.000000
 -0.080323 -0.080323 -0.328440    128.000000
 -0.080323 -0.053549 -0.281520    256.000000
 -0.080323 -0.026774 -0.234600    256.000000
 -0.080323 -0.000000 -0.187680    128.000000
 -0.053549 -0.053549 -0.234600    128.000000
 -0.053549 -0.026774 -0.187680    256.000000
 -0.053549 -0.000000 -0.140760    128.000000
 -0.026774 -0.026774 -0.140760    128.000000
 -0.026774 -0.000000 -0.093840    128.000000
 -0.000000  0.000000 -0.046920     32.000000
  0.080323  0.080323  0.140760    128.000000
  0.080323  0.107098  0.187680    128.000000
  0.080323  0.000000  0.000000     64.000000
  0.107098  0.107098  0.234600     64.000000
  0.107098 -0.026774  0.000000    128.000000
  0.107098  0.000000  0.046920    128.000000
  0.133872 -0.053549  0.000000    128.000000
  0.133872 -0.026774  0.046920    256.000000
  0.133872  0.000000  0.093840    128.000000
 -0.053549 -0.053549 -0.328440    128.000000
 -0.053549 -0.026774 -0.281520    256.000000
 -0.053549 -0.000000 -0.234600    128.000000
 -0.026774 -0.026774 -0.234600    128.000000
 -0.026774  0.000000 -0.187680    128.000000
 -0.000000 -0.000000 -0.140760     32.000000
  0.133872  0.000000  0.000000     64.000000
  0.160646 -0.026774  0.000000    128.000000
  0.160646  0.000000  0.046920    128.000000
 -0.026774 -0.026774 -0.328440    128.000000
 -0.026774  0.000000 -0.281520    128.000000
 -0.000000  0.000000 -0.234600     32.000000
  0.187421  0.000000  0.000000     64.000000
 -0.000000  0.000000 -0.328440     32.000000

 SYSTEM =  unknown system
 POSCAR =  Si2

 Startparameter for this run:
   NWRITE =      2    write-flag & timer
   PREC   = normal    normal or accurate (medium, high low for compatibility)
   ISTART =      0    job   : 0-new  1-cont  2-samecut
   ICHARG =      2    charge: 1-file 2-atom 10-const
   ISPIN  =      1    spin polarized calculation?
   LNONCOLLINEAR =      F non collinear calculations
   LSORBIT =      F    spin-orbit coupling
   INIWAV =      1    electr: 0-lowe 1-rand  2-diag
   LASPH  =      F    aspherical Exc in radial PAW
   METAGGA=      F    non-selfconsistent MetaGGA calc.

 Electronic Relaxation 1
   ENCUT  =  350.0 eV  25.72 Ry    5.07 a.u.   5.43  5.43  5.43*2*pi/ulx,y,z
   ENINI  =  350.0     initial cutoff
   ENAUG  =  322.1 eV  augmentation charge cutoff
   NELM   =     60;   NELMIN=  2; NELMDL= -5     # of ELM steps
   EDIFF  = 0.4E-03   stopping-criterion for ELM
   LREAL  =      F    real-space projection
   NLSPLINE    = F    spline interpolate recip. space projectors
   LCOMPAT=      F    compatible to vasp.4.4
   GGA_COMPAT  = T    GGA compatible to vasp.4.4-vasp.4.6
   LMAXPAW     = -100 max onsite density
   LMAXMIX     =    2 max onsite mixed and CHGCAR
   VOSKOWN=      0    Vosko Wilk Nusair interpolation
   ROPT   =    0.00000
 Ionic relaxation
   EDIFFG = -.1E-01   stopping-criterion for IOM
[...]
   0.02677439  0.10709757  0.18767980       0.016
   0.02677439  0.00000000 -0.00000000       0.008
   0.05354879  0.05354879  0.14075985       0.016
   0.05354879  0.08032318  0.18767980       0.031
   0.05354879  0.10709757  0.23459975       0.031
   0.05354879 -0.08032318 -0.09383990       0.031
   0.05354879 -0.05354879 -0.04691995       0.016
   0.05354879 -0.02677439 -0.00000000       0.016
   0.05354879  0.00000000  0.04691995       0.016
   0.08032318  0.08032318  0.23459975       0.016
   0.08032318  0.10709757  0.28151970       0.031
   0.08032318 -0.08032318 -0.04691995       0.016
   0.08032318 -0.05354879 -0.00000000       0.016
   0.08032318 -0.02677439  0.04691995       0.031
   0.08032318  0.00000000  0.09383990       0.016
   0.10709757  0.10709757  0.32843965       0.008
   0.10709757 -0.08032318 -0.00000000       0.016
   0.10709757 -0.05354879  0.04691995       0.031
   0.10709757 -0.02677439  0.09383990       0.031
   0.10709757  0.00000000  0.14075985       0.016
  -0.08032318 -0.08032318 -0.32843965       0.016
  -0.08032318 -0.05354879 -0.28151970       0.031
  -0.08032318 -0.02677439 -0.23459975       0.031
  -0.08032318 -0.00000000 -0.18767980       0.016
  -0.05354879 -0.05354879 -0.23459975       0.016
  -0.05354879 -0.02677439 -0.18767980       0.031
  -0.05354879 -0.00000000 -0.14075985       0.016
  -0.02677439 -0.02677439 -0.14075985       0.016
  -0.02677439 -0.00000000 -0.09383990       0.016
   0.00000000  0.00000000 -0.04691995       0.004
   0.08032318  0.08032318  0.14075985       0.016
   0.08032318  0.10709757  0.18767980       0.016
   0.08032318  0.00000000 -0.00000000       0.008
   0.10709757  0.10709757  0.23459975       0.008
   0.10709757 -0.02677439 -0.00000000       0.016
   0.10709757  0.00000000  0.04691995       0.016
   0.13387196 -0.05354879 -0.00000000       0.016
   0.13387196 -0.02677439  0.04691995       0.031
   0.13387196  0.00000000  0.09383990       0.016
  -0.05354879 -0.05354879 -0.32843965       0.016
  -0.05354879 -0.02677439 -0.28151970       0.031
  -0.05354879 -0.00000000 -0.23459975       0.016
  -0.02677439 -0.02677439 -0.23459975       0.016
  -0.02677439 -0.00000000 -0.18767980       0.016
  -0.00000000 -0.00000000 -0.14075985       0.004
   0.13387196  0.00000000 -0.00000000       0.008
   0.16064636 -0.02677439 -0.00000000       0.016
   0.16064636  0.00000000  0.04691995       0.016
  -0.02677439 -0.02677439 -0.32843965       0.016
  -0.02677439  0.00000000 -0.28151970       0.016
   0.00000000  0.00000000 -0.23459975       0.004
   0.18742075 -0.00000000 -0.00000000       0.008
  -0.00000000 -0.00000000 -0.32843965       0.004

 k-points in reciprocal lattice and weights: Automatic kpoint scheme
   0.06250000  0.06250000  0.06250000       0.016
   0.18750000  0.06250000  0.06250000       0.031
   0.31250000  0.06250000  0.06250000       0.031
   0.43750000  0.06250000  0.06250000       0.016
  -0.06250000  0.06250000  0.06250000       0.008
   0.18750000  0.18750000  0.06250000       0.016
   0.31250000  0.18750000  0.06250000       0.031
   0.43750000  0.18750000  0.06250000       0.031
  -0.43750000  0.18750000  0.06250000       0.031
  -0.31250000  0.18750000  0.06250000       0.016
  -0.18750000  0.18750000  0.06250000       0.016
  -0.06250000  0.18750000  0.06250000       0.016
   0.31250000  0.31250000  0.06250000       0.016
   0.43750000  0.31250000  0.06250000       0.031
  -0.43750000  0.31250000  0.06250000       0.016
  -0.31250000  0.31250000  0.06250000       0.016
  -0.18750000  0.31250000  0.06250000       0.031
  -0.06250000  0.31250000  0.06250000       0.016
   0.43750000  0.43750000  0.06250000       0.008
  -0.43750000  0.43750000  0.06250000       0.016
  -0.31250000  0.43750000  0.06250000       0.031
  -0.18750000  0.43750000  0.06250000       0.031
  -0.06250000  0.43750000  0.06250000       0.016
  -0.43750000 -0.43750000  0.06250000       0.016
  -0.31250000 -0.43750000  0.06250000       0.031
  -0.18750000 -0.43750000  0.06250000       0.031
  -0.06250000 -0.43750000  0.06250000       0.016
  -0.31250000 -0.31250000  0.06250000       0.016
  -0.18750000 -0.31250000  0.06250000       0.031
  -0.06250000 -0.31250000  0.06250000       0.016
  -0.18750000 -0.18750000  0.06250000       0.016
  -0.06250000 -0.18750000  0.06250000       0.016
  -0.06250000 -0.06250000  0.06250000       0.004
   0.18750000  0.18750000  0.18750000       0.016
   0.31250000  0.18750000  0.18750000       0.016
  -0.18750000  0.18750000  0.18750000       0.008
   0.31250000  0.31250000  0.18750000       0.008
  -0.31250000  0.31250000  0.18750000       0.016
  -0.18750000  0.31250000  0.18750000       0.016
  -0.43750000  0.43750000  0.18750000       0.016
  -0.31250000  0.43750000  0.18750000       0.031
  -0.18750000  0.43750000  0.18750000       0.016
  -0.43750000 -0.43750000  0.18750000       0.016
  -0.31250000 -0.43750000  0.18750000       0.031
  -0.18750000 -0.43750000  0.18750000       0.016
  -0.31250000 -0.31250000  0.18750000       0.016
  -0.18750000 -0.31250000  0.18750000       0.016
  -0.18750000 -0.18750000  0.18750000       0.004
  -0.31250000  0.31250000  0.31250000       0.008
  -0.43750000  0.43750000  0.31250000       0.016
  -0.31250000  0.43750000  0.31250000       0.016
  -0.43750000 -0.43750000  0.31250000       0.016
  -0.31250000 -0.43750000  0.31250000       0.016
  -0.31250000 -0.31250000  0.31250000       0.004
  -0.43750000  0.43750000  0.43750000       0.008
  -0.43750000 -0.43750000  0.43750000       0.004

 position of ions in fractional coordinates (direct lattice)
   0.00000000  0.00000000  0.00000000
   0.25000000  0.75000000  0.50000000

 position of ions in cartesian coordinates  (Angst):
   0.00000000  0.00000000  0.00000000
   2.33432000  0.00000000  0.66602800

 k-point  1 :   0.0625 0.0625 0.0625  plane waves:     435
 k-point  2 :   0.1875 0.0625 0.0625  plane waves:     435
 k-point  3 :   0.3125 0.0625 0.0625  plane waves:     439
 k-point  4 :   0.4375 0.0625 0.0625  plane waves:     440
 k-point  5 :  -0.0625 0.0625 0.0625  plane waves:     421
 k-point  6 :   0.1875 0.1875 0.0625  plane waves:     440
 k-point  7 :   0.3125 0.1875 0.0625  plane waves:     431
 k-point  8 :   0.4375 0.1875 0.0625  plane waves:     432
 k-point  9 :  -0.4375 0.1875 0.0625  plane waves:     432
 k-point 10 :  -0.3125 0.1875 0.0625  plane waves:     431
 k-point 11 :  -0.1875 0.1875 0.0625  plane waves:     430
 k-point 12 :  -0.0625 0.1875 0.0625  plane waves:     437
 k-point 13 :   0.3125 0.3125 0.0625  plane waves:     434
 k-point 14 :   0.4375 0.3125 0.0625  plane waves:     432
 k-point 15 :  -0.4375 0.3125 0.0625  plane waves:     428
 k-point 16 :  -0.3125 0.3125 0.0625  plane waves:     426
 k-point 17 :  -0.1875 0.3125 0.0625  plane waves:     428
 k-point 18 :  -0.0625 0.3125 0.0625  plane waves:     432
 k-point 19 :   0.4375 0.4375 0.0625  plane waves:     432
 k-point 20 :  -0.4375 0.4375 0.0625  plane waves:     428
 k-point 21 :  -0.3125 0.4375 0.0625  plane waves:     433
 k-point 22 :  -0.1875 0.4375 0.0625  plane waves:     434
 k-point 23 :  -0.0625 0.4375 0.0625  plane waves:     434
 k-point 24 :  -0.4375-0.4375 0.0625  plane waves:     431
 k-point 25 :  -0.3125-0.4375 0.0625  plane waves:     435
 k-point 26 :  -0.1875-0.4375 0.0625  plane waves:     430
 k-point 27 :  -0.0625-0.4375 0.0625  plane waves:     435
 k-point 28 :  -0.3125-0.3125 0.0625  plane waves:     429
 k-point 29 :  -0.1875-0.3125 0.0625  plane waves:     435
 k-point 30 :  -0.0625-0.3125 0.0625  plane waves:     440
 k-point 31 :  -0.1875-0.1875 0.0625  plane waves:     436
 k-point 32 :  -0.0625-0.1875 0.0625  plane waves:     440
 k-point 33 :  -0.0625-0.0625 0.0625  plane waves:     440
 k-point 34 :   0.1875 0.1875 0.1875  plane waves:     435
 k-point 35 :   0.3125 0.1875 0.1875  plane waves:     434
 k-point 36 :  -0.1875 0.1875 0.1875  plane waves:     433
 k-point 37 :   0.3125 0.3125 0.1875  plane waves:     442
 k-point 38 :  -0.3125 0.3125 0.1875  plane waves:     432
 k-point 39 :  -0.1875 0.3125 0.1875  plane waves:     433
 k-point 40 :  -0.4375 0.4375 0.1875  plane waves:     428
 k-point 41 :  -0.3125 0.4375 0.1875  plane waves:     430
 k-point 42 :  -0.1875 0.4375 0.1875  plane waves:     429
 k-point 43 :  -0.4375-0.4375 0.1875  plane waves:     427
 k-point 44 :  -0.3125-0.4375 0.1875  plane waves:     429
 k-point 45 :  -0.1875-0.4375 0.1875  plane waves:     425
 k-point 46 :  -0.3125-0.3125 0.1875  plane waves:     423
 k-point 47 :  -0.1875-0.3125 0.1875  plane waves:     433
 k-point 48 :  -0.1875-0.1875 0.1875  plane waves:     444
 k-point 49 :  -0.3125 0.3125 0.3125  plane waves:     435
 k-point 50 :  -0.4375 0.4375 0.3125  plane waves:     425
 k-point 51 :  -0.3125 0.4375 0.3125  plane waves:     423
 k-point 52 :  -0.4375-0.4375 0.3125  plane waves:     419
 k-point 53 :  -0.3125-0.4375 0.3125  plane waves:     421
 k-point 54 :  -0.3125-0.3125 0.3125  plane waves:     420
 k-point 55 :  -0.4375 0.4375 0.4375  plane waves:     415
 k-point 56 :  -0.4375-0.4375 0.4375  plane waves:     408

 maximum and minimum number of plane-waves per node :       444      408

 maximum number of plane-waves:       444
 maximum index in each direction:
   IXMAX=    5   IYMAX=    5   IZMAX=    5
   IXMIN=   -5   IYMIN=   -5   IZMIN=   -5

 serial   3D FFT for wavefunctions
 parallel 3D FFT for charge:
    minimum data exchange during FFTs selected (reduces bandwidth)

 Broyden mixing: mesh for mixing (old mesh)
   NGX = 11   NGY = 11   NGZ = 11
  (NGX  = 32   NGY  = 32   NGZ  = 32)
  gives a total of   1331 points

 initial charge density was supplied:
 charge density of overlapping atoms calculated
 number of electron       8.0000000 magnetization
 keeping initial charge density in first step

 Maximum index for augmentation-charges          577 (set IRDMAX)

 First call to EWALD:  gamma=   0.577
 Maximum number of real-space cells 3x 3x 3
 Maximum number of reciprocal cells 3x 3x 3

--------------------------------------- Iteration      1(   1)  ---------------------------------------

 eigenvalue-minimisations  :   896
 total energy-change (2. order) : 0.1610937E+01  (-0.2813874E+03)
 number of electron       8.0000000 magnetization
 augmentation part        8.0000000 magnetization

 Free energy of the ion-electron system (eV)
  alpha Z        PSCENC =         4.63778449
  Ewald energy   TEWEN  =      -269.83718697
  -Hartree energ DENC   =        -1.92604898
  -exchange      EXHF   =         0.00000000
  -V(xc)+E(xc)   XCENC  =       -17.55458722
  PAW double counting   =        65.95520812      -30.76852678
  entropy T*S    EENTRO =        -0.01576182
  eigenvalues    EBANDS =        44.98880208
  atomic energy  EATOM  =       206.13125414
  Solvation  Ediel_sol  =         0.00000000
  free energy    TOTEN  =         1.61093704 eV

  energy without entropy =        1.62669886  energy(sigma->0) =        1.61881795

[...]

 eigenvalue-minimisations  :  1352
 total energy-change (2. order) :-0.1175243E+02  (-0.1147669E+02)
 number of electron       8.0000000 magnetization
 augmentation part        8.0000000 magnetization

[...]

 eigenvalue-minimisations  :  1216
 total energy-change (2. order) :-0.1170548E-06  (-0.1176508E-06)
 number of electron       8.0000007 magnetization
 augmentation part       -0.4689207 magnetization

 Broyden mixing:
  rms(total) = 0.17378E+00    rms(broyden)= 0.17377E+00
  rms(prec ) = 0.40459E+00
  weight for this iteration     100.00

[...]

 eigenvalues of (default mixing * dielectric matrix)
  average eigenvalue GAMMA=   2.5835
  2.5835

[...]

 Broyden mixing:
  rms(total) = 0.67528E-02    rms(broyden)= 0.67527E-02
  rms(prec ) = 0.19702E-01
  weight for this iteration     100.00

 eigenvalues of (default mixing * dielectric matrix)
  average eigenvalue GAMMA=   2.5418
  2.5418  2.5418

[...]

--------------------------------------- Iteration      1(   8)  ---------------------------------------

 eigenvalue-minimisations  :   776
 total energy-change (2. order) : 0.8424102E-04  (-0.8222487E-04)
 number of electron       8.0000007 magnetization
 augmentation part       -0.4722056 magnetization

 Free energy of the ion-electron system (eV)
  alpha Z        PSCENC =         4.63778449
  Ewald energy   TEWEN  =      -269.83718697
  -Hartree energ DENC   =        -2.26216488
  -exchange      EXHF   =         0.00000000
  -V(xc)+E(xc)   XCENC  =       -17.28130510
  PAW double counting   =        71.75928608      -36.71471257
  entropy T*S    EENTRO =        -0.01670145
  eigenvalues    EBANDS =        33.35050846
  atomic energy  EATOM  =       206.13125414
  Solvation  Ediel_sol  =         0.00000000
  free energy    TOTEN  =       -10.23323781 eV

  energy without entropy =      -10.21653635  energy(sigma->0) =      -10.22488708

 average (electrostatic) potential at core
  the test charge radii are     0.9892
  (the norm of the test charge is              1.0000)
       1 -79.8128       2 -79.8128

 E-fermi :   9.7526     XC(G=0): -11.1025     alpha+bet :-16.5218

 k-point     1 :       0.0625    0.0625    0.0625
  band No.  band energies     occupation
      1      -3.8689      2.00000
      2       5.5852      2.00000
      3       7.7993      2.00000
      4       9.8475      0.50249
      5      12.9034      0.00000
      6      14.8695      0.00000
      7      15.3050      0.00000
      8      17.7640      0.00000

[...]

 k-point    56 :      -0.4375   -0.4375    0.4375
  band No.  band energies     occupation
      1       1.8255      2.00000
      2       1.8611      2.00000
      3       3.0384      2.00000
      4       3.0384      2.00000
      5      10.7283      0.00000
      6      19.2094      0.00000
      7      21.8598      0.00000
      8      21.8678      0.00000

 soft charge-density along one line, spin component           1
         0         1         2         3         4         5         6         7         8         9
 total charge-density along one line

------------------------ aborting loop because EDIFF is reached ----------------------------------------

  FORCE on cell =-STRESS in cart. coord.  units (eV):
  Direction    XX          YY          ZZ          XY          YZ          ZX
  Alpha Z     4.63778     4.63778     4.63778
  Ewald     -87.53285   -87.53285   -94.77171     0.00000    -0.00000    -0.00000
  Hartree     0.83432     0.83432     0.59998    -0.00000    -0.00000    -0.00000
  E(xc)     -25.84304   -25.84304   -25.62639     0.00001     0.00000     0.00000
  Local     -15.73950   -15.73950    -6.15078    -0.00005    -0.00003    -0.00003
  n-local    78.96731    78.56850    74.88339     1.28226    -0.54104    -0.79181
  augment   -12.09638   -12.09638   -11.81817     0.00003     0.00002     0.00002
  Kinetic    56.33944    60.54972    59.24387     3.04633    -1.54136    -1.62932
  Fock        0.00000     0.00000     0.00000     0.00000     0.00000     0.00000
  Total       1.47282     1.47282     0.99799    -0.00000     0.00000     0.00000
  in kB      81.27520    81.27520    55.07238    -0.00000     0.00000     0.00000

 VOLUME and BASIS-vectors are now :
  energy-cutoff  :      350.00
  volume of cell :       29.03
      direct lattice vectors                 reciprocal lattice vectors
    -2.334320000  2.334320000  1.332056000     0.000000000  0.214195140  0.375359594
     2.334320000 -2.334320000  1.332056000     0.214195140  0.000000000  0.375359594
     2.334320000  2.334320000 -1.332056000     0.214195140  0.214195140 -0.000000000

  length of vectors
     3.559841698  3.559841698  3.559841698     0.432174020  0.432174020  0.302917672

 FORCES acting on ions
    electron-ion (+dipol)            ewald-force                    non-local-force                 convergence-correction
   0.315E-06 -.315E-06 0.715E-14   -.513E-15 0.117E-14 0.103E-14   -.233E-16 -.943E-17 -.361E-16   -.175E-08 0.175E-08 0.404E-16
   -.315E-06 0.315E-06 -.290E-13   0.399E-15 -.151E-14 -.302E-15   0.144E-16 -.203E-16 0.332E-16   0.175E-08 -.175E-08 0.309E-15
   0.106E-13 0.112E-13 -.218E-13   -.114E-15 -.337E-15 0.724E-15   -.893E-17 -.297E-16 -.287E-17   -.236E-16 -.542E-16 0.349E-15

 POSITION                                       TOTAL-FORCE (eV/Angst)
      0.00000      0.00000      0.00000         0.000000     -0.000000      0.000000
      2.33432      0.00000      0.66603        -0.000000      0.000000     -0.000000
    total drift:                                0.000000      0.000000     -0.000000

  FREE ENERGIE OF THE ION-ELECTRON SYSTEM (eV)
  free  energy   TOTEN  =       -10.23323781 eV

  energy  without entropy=      -10.21653635  energy(sigma->0) =      -10.22488708

 reached required accuracy - stopping structural energy minimisation
 writing wavefunctions