 vasp.5.4.4.18Apr17-6-g9f103f2a35 (build Dec 09 2018 21:25:21) complex

 executed on IFC18.0.1.163_CrayMP date 2019.04.01  15:59:46

 INCAR:
 POTCAR:   PAW_PBE Si 05Jan2001

 POTCAR:   PAW_PBE Si 05Jan2001
   VRHFIN =Si: s2p2

   TITEL  = PAW_PBE Si 05Jan2001
   POMASS =   28.085; ZVAL   =    4.000    mass and valenz
   ENMAX  =  245.345; ENMIN  =  184.009 eV
   QCUT   =   -4.246; QGAM   =    8.493    optimization parameters

   Description
     l     E      TYP  RCUT    TYP  RCUT
     0   .000     23  1.900
     0   .000     23  1.900
     1   .000     23  1.900
     1   .000     23  1.900
     2   .000      7  1.900

 PAW_PBE Si 05Jan2001                   :

 POSCAR: Si2
  positions in direct lattice
 exchange correlation table for  LEXCH =        8
   RHO(1)=    0.500       N(1)  =     2000
   RHO(2)=  100.500       N(2)  =     4000

 ion  position               nearest neighbor table
   1  0.000  0.000  0.000-   2 2.37   2 2.37   2 2.37   2 2.37
   2  0.250  0.250  0.250-   1 2.37   1 2.37   1 2.37   1 2.37

  LATTYP: Found a face centered cubic cell.
 ALAT       =     5.4685980000

  Lattice vectors:

 A1 = (   0.0000000000,   2.7342990000,   2.7342990000)
 A2 = (   2.7342990000,   0.0000000000,   2.7342990000)
 A3 = (   2.7342990000,   2.7342990000,   0.0000000000)

Analysis of symmetry for initial positions (statically):
 Subroutine PRICEL returns:
 Original cell was already a primitive cell.

 Routine SETGRP: Setting up the symmetry group for a
 face centered cubic supercell.

 Subroutine GETGRP returns: Found 48 space group operations
 (whereof 24 operations were pure point group operations)
 out of a pool of 48 trial point group operations.

The static configuration has the point symmetry T_d .
 The point group associated with its full space group is O_h .

Analysis of symmetry for dynamics (positions and initial velocities):
 Subroutine PRICEL returns:
 Original cell was already a primitive cell.

 Routine SETGRP: Setting up the symmetry group for a
 face centered cubic supercell.

 Subroutine GETGRP returns: Found 48 space group operations
 (whereof 24 operations were pure point group operations)
 out of a pool of 48 trial point group operations.

The dynamic configuration has the point symmetry T_d .
 The point group associated with its full space group is O_h .

 Subroutine INISYM returns: Found 48 space group operations
 (whereof 24 operations are pure point group operations),
 and found     1 'primitive' translations

 KPOINTS: Automatic kpoint scheme

Automatic generation of k-mesh.
Space group operators:
 irot       det(A)        alpha          n_x          n_y          n_z        tau_x        tau_y        tau_z
    1     1.000000     0.000000     1.000000     0.000000     0.000000     0.000000     0.000000     0.000000
    2     1.000000   120.000000    -0.577350    -0.577350    -0.577350     0.000000     0.000000     0.000000
    3     1.000000   120.000000     0.577350     0.577350     0.577350     0.000000     0.000000     0.000000
    4    -1.000000    90.000000     0.000000     0.000000    -1.000000     0.000000     0.000000     0.000000
    5    -1.000000   180.000000    -0.000000     0.707107     0.707107     0.000000     0.000000     0.000000
    6    -1.000000    90.000000     0.000000     1.000000     0.000000     0.000000     0.000000     0.000000
    7     1.000000   180.000000    -0.000000     0.000000    -1.000000     0.000000     0.000000     0.000000
    8     1.000000   120.000000    -0.577350     0.577350     0.577350     0.000000     0.000000     0.000000
    9     1.000000   120.000000    -0.577350     0.577350    -0.577350     0.000000     0.000000     0.000000
   10    -1.000000    90.000000     0.000000     0.000000     1.000000     0.000000     0.000000     0.000000
   11    -1.000000    90.000000    -1.000000    -0.000000     0.000000     0.000000     0.000000     0.000000
   12    -1.000000   180.000000     0.707107     0.000000     0.707107     0.000000     0.000000     0.000000
   13     1.000000   120.000000     0.577350    -0.577350     0.577350     0.000000     0.000000     0.000000
   14     1.000000   120.000000    -0.577350    -0.577350     0.577350     0.000000     0.000000     0.000000
   15     1.000000   180.000000     1.000000     0.000000     0.000000     0.000000     0.000000     0.000000
   16    -1.000000    90.000000     0.000000    -1.000000     0.000000     0.000000     0.000000     0.000000
   17    -1.000000   180.000000     0.707107     0.707107     0.000000     0.000000     0.000000     0.000000
   18    -1.000000    90.000000     1.000000    -0.000000    -0.000000     0.000000     0.000000     0.000000
   19     1.000000   120.000000     0.577350    -0.577350    -0.577350     0.000000     0.000000     0.000000
   20     1.000000   180.000000    -0.000000    -1.000000     0.000000     0.000000     0.000000     0.000000
   21     1.000000   120.000000     0.577350     0.577350    -0.577350     0.000000     0.000000     0.000000
   22    -1.000000   180.000000     0.000000    -0.707107     0.707107     0.000000     0.000000     0.000000
   23    -1.000000   180.000000     0.707107    -0.707107     0.000000     0.000000     0.000000     0.000000
   24    -1.000000   180.000000     0.707107     0.000000    -0.707107     0.000000     0.000000     0.000000
   25    -1.000000     0.000000     1.000000     0.000000     0.000000     0.250000     0.250000     0.250000
   26    -1.000000   120.000000    -0.577350    -0.577350    -0.577350     0.250000     0.250000     0.250000
   27    -1.000000   120.000000     0.577350     0.577350     0.577350     0.250000     0.250000     0.250000
   28     1.000000    90.000000     0.000000     0.000000    -1.000000     0.250000     0.250000     0.250000
   29     1.000000   180.000000    -0.000000     0.707107     0.707107     0.250000     0.250000     0.250000
   30     1.000000    90.000000     0.000000     1.000000     0.000000     0.250000     0.250000     0.250000
   31    -1.000000   180.000000    -0.000000     0.000000    -1.000000     0.250000     0.250000     0.250000
   32    -1.000000   120.000000    -0.577350     0.577350     0.577350     0.250000     0.250000     0.250000
   33    -1.000000   120.000000    -0.577350     0.577350    -0.577350     0.250000     0.250000     0.250000
   34     1.000000    90.000000     0.000000     0.000000     1.000000     0.250000     0.250000     0.250000
   35     1.000000    90.000000    -1.000000    -0.000000     0.000000     0.250000     0.250000     0.250000
   36     1.000000   180.000000     0.707107     0.000000     0.707107     0.250000     0.250000     0.250000
   37    -1.000000   120.000000     0.577350    -0.577350     0.577350     0.250000     0.250000     0.250000
   38    -1.000000   120.000000    -0.577350    -0.577350     0.577350     0.250000     0.250000     0.250000
   39    -1.000000   180.000000     1.000000     0.000000     0.000000     0.250000     0.250000     0.250000
   40     1.000000    90.000000     0.000000    -1.000000     0.000000     0.250000     0.250000     0.250000
   41     1.000000   180.000000     0.707107     0.707107     0.000000     0.250000     0.250000     0.250000
   42     1.000000    90.000000     1.000000    -0.000000    -0.000000     0.250000     0.250000     0.250000
   43    -1.000000   120.000000     0.577350    -0.577350    -0.577350     0.250000     0.250000     0.250000
   44    -1.000000   180.000000    -0.000000    -1.000000     0.000000     0.250000     0.250000     0.250000
   45    -1.000000   120.000000     0.577350     0.577350    -0.577350     0.250000     0.250000     0.250000
   46     1.000000   180.000000     0.000000    -0.707107     0.707107     0.250000     0.250000     0.250000
   47     1.000000   180.000000     0.707107    -0.707107     0.000000     0.250000     0.250000     0.250000
   48     1.000000   180.000000     0.707107     0.000000    -0.707107     0.250000     0.250000     0.250000

 Subroutine IBZKPT returns following result:

 Found     60 irreducible k-points:

 Following reciprocal coordinates:
            Coordinates               Weight
  0.062500  0.062500  0.062500     96.000000
  0.187500  0.062500  0.062500    288.000000
  0.312500  0.062500  0.062500    288.000000
  0.437500  0.062500  0.062500    288.000000
 -0.437500  0.062500  0.062500    288.000000
 -0.312500  0.062500  0.062500    288.000000
 -0.187500  0.062500  0.062500    288.000000
 -0.062500  0.062500  0.062500    288.000000
  0.187500  0.187500  0.062500    288.000000
  0.312500  0.187500  0.062500    576.000000
  0.437500  0.187500  0.062500    576.000000
 -0.437500  0.187500  0.062500    576.000000
 -0.312500  0.187500  0.062500    576.000000
 -0.187500  0.187500  0.062500    576.000000
 -0.062500  0.187500  0.062500    576.000000
  0.312500  0.312500  0.062500    288.000000
  0.437500  0.312500  0.062500    576.000000
 -0.437500  0.312500  0.062500    576.000000
 -0.312500  0.312500  0.062500    576.000000
 -0.187500  0.312500  0.062500    576.000000
 -0.062500  0.312500  0.062500    576.000000
  0.437500  0.437500  0.062500    288.000000
 -0.437500  0.437500  0.062500    576.000000
 -0.312500  0.437500  0.062500    576.000000
 -0.187500  0.437500  0.062500    576.000000
 -0.062500  0.437500  0.062500    576.000000
 -0.437500 -0.437500  0.062500    288.000000
 -0.312500 -0.437500  0.062500    576.000000
 -0.187500 -0.437500  0.062500    576.000000
 -0.312500 -0.312500  0.062500    288.000000
 -0.187500 -0.312500  0.062500    576.000000
 -0.187500 -0.187500  0.062500    288.000000
  0.187500  0.187500  0.187500     96.000000
  0.312500  0.187500  0.187500    288.000000
  0.437500  0.187500  0.187500    288.000000
 -0.437500  0.187500  0.187500    288.000000
 -0.312500  0.187500  0.187500    288.000000
 -0.187500  0.187500  0.187500    288.000000
  0.312500  0.312500  0.187500    288.000000
  0.437500  0.312500  0.187500    576.000000
 -0.437500  0.312500  0.187500    576.000000
 -0.312500  0.312500  0.187500    576.000000
 -0.187500  0.312500  0.187500    576.000000
  0.437500  0.437500  0.187500    288.000000
 -0.437500  0.437500  0.187500    576.000000
 -0.312500  0.437500  0.187500    576.000000
 -0.187500  0.437500  0.187500    576.000000
 -0.437500 -0.437500  0.187500    288.000000
 -0.312500 -0.437500  0.187500    576.000000
 -0.312500 -0.312500  0.187500    288.000000
  0.312500  0.312500  0.312500     96.000000
  0.437500  0.312500  0.312500    288.000000
 -0.437500  0.312500  0.312500    288.000000
 -0.312500  0.312500  0.312500    288.000000
  0.437500  0.437500  0.312500    288.000000
 -0.437500  0.437500  0.312500    576.000000
 -0.312500  0.437500  0.312500    576.000000
 -0.437500 -0.437500  0.312500    288.000000
  0.437500  0.437500  0.437500     96.000000
 -0.437500  0.437500  0.437500    288.000000

 Following cartesian coordinates:
            Coordinates               Weight
  0.011429  0.011429  0.011429     96.000000
 -0.011429  0.034287  0.034287    288.000000
 -0.034287  0.057144  0.057144    288.000000
 -0.057144  0.080002  0.080002    288.000000
  0.102860 -0.080002 -0.080002    288.000000
  0.080002 -0.057144 -0.057144    288.000000
[...]
  -0.01142889  0.03428667  0.12571778       0.023
   0.14857556 -0.12571778 -0.03428667       0.023
   0.12571778 -0.10286000 -0.01142889       0.023
   0.10286000 -0.08000222  0.01142889       0.023
   0.08000222 -0.05714445  0.03428667       0.023
   0.01142889  0.01142889  0.14857556       0.012
   0.17143334 -0.14857556 -0.01142889       0.023
   0.14857556 -0.12571778  0.01142889       0.023
   0.12571778 -0.10286000  0.03428667       0.023
   0.10286000 -0.08000222  0.05714445       0.023
   0.01142889  0.01142889 -0.17143334       0.012
  -0.01142889  0.03428667 -0.14857556       0.023
  -0.03428667  0.05714445 -0.12571778       0.023
   0.01142889  0.01142889 -0.12571778       0.012
  -0.01142889  0.03428667 -0.10286000       0.023
   0.01142889  0.01142889 -0.08000222       0.012
   0.03428667  0.03428667  0.03428667       0.004
   0.01142889  0.05714445  0.05714445       0.012
  -0.01142889  0.08000222  0.08000222       0.012
   0.14857556 -0.08000222 -0.08000222       0.012
   0.12571778 -0.05714445 -0.05714445       0.012
   0.10286000 -0.03428667 -0.03428667       0.012
   0.03428667  0.03428667  0.08000222       0.012
   0.01142889  0.05714445  0.10286000       0.023
   0.17143334 -0.10286000 -0.05714445       0.023
   0.14857556 -0.08000222 -0.03428667       0.023
   0.12571778 -0.05714445 -0.01142889       0.023
   0.03428667  0.03428667  0.12571778       0.012
   0.19429111 -0.12571778 -0.03428667       0.023
   0.17143334 -0.10286000 -0.01142889       0.023
   0.14857556 -0.08000222  0.01142889       0.023
   0.03428667  0.03428667 -0.19429111       0.012
   0.01142889  0.05714445 -0.17143334       0.023
   0.03428667  0.03428667 -0.14857556       0.012
   0.05714445  0.05714445  0.05714445       0.004
   0.03428667  0.08000222  0.08000222       0.012
   0.19429111 -0.08000222 -0.08000222       0.012
   0.17143334 -0.05714445 -0.05714445       0.012
   0.05714445  0.05714445  0.10286000       0.012
   0.21714889 -0.10286000 -0.05714445       0.023
   0.19429111 -0.08000222 -0.03428667       0.023
   0.05714445  0.05714445 -0.21714889       0.012
   0.08000222  0.08000222  0.08000222       0.004
   0.24000667 -0.08000222 -0.08000222       0.012

 k-points in reciprocal lattice and weights: Automatic kpoint scheme
   0.06250000  0.06250000  0.06250000       0.004
   0.18750000  0.06250000  0.06250000       0.012
   0.31250000  0.06250000  0.06250000       0.012
   0.43750000  0.06250000  0.06250000       0.012
  -0.43750000  0.06250000  0.06250000       0.012
  -0.31250000  0.06250000  0.06250000       0.012
  -0.18750000  0.06250000  0.06250000       0.012
  -0.06250000  0.06250000  0.06250000       0.012
   0.18750000  0.18750000  0.06250000       0.012
   0.31250000  0.18750000  0.06250000       0.023
   0.43750000  0.18750000  0.06250000       0.023
  -0.43750000  0.18750000  0.06250000       0.023
  -0.31250000  0.18750000  0.06250000       0.023
  -0.18750000  0.18750000  0.06250000       0.023
  -0.06250000  0.18750000  0.06250000       0.023
   0.31250000  0.31250000  0.06250000       0.012
   0.43750000  0.31250000  0.06250000       0.023
  -0.43750000  0.31250000  0.06250000       0.023
  -0.31250000  0.31250000  0.06250000       0.023
  -0.18750000  0.31250000  0.06250000       0.023
  -0.06250000  0.31250000  0.06250000       0.023
   0.43750000  0.43750000  0.06250000       0.012
  -0.43750000  0.43750000  0.06250000       0.023
  -0.31250000  0.43750000  0.06250000       0.023
  -0.18750000  0.43750000  0.06250000       0.023
  -0.06250000  0.43750000  0.06250000       0.023
  -0.43750000 -0.43750000  0.06250000       0.012
  -0.31250000 -0.43750000  0.06250000       0.023
  -0.18750000 -0.43750000  0.06250000       0.023
  -0.31250000 -0.31250000  0.06250000       0.012
  -0.18750000 -0.31250000  0.06250000       0.023
  -0.18750000 -0.18750000  0.06250000       0.012
   0.18750000  0.18750000  0.18750000       0.004
   0.31250000  0.18750000  0.18750000       0.012
   0.43750000  0.18750000  0.18750000       0.012
  -0.43750000  0.18750000  0.18750000       0.012
  -0.31250000  0.18750000  0.18750000       0.012
  -0.18750000  0.18750000  0.18750000       0.012
   0.31250000  0.31250000  0.18750000       0.012
   0.43750000  0.31250000  0.18750000       0.023
  -0.43750000  0.31250000  0.18750000       0.023
  -0.31250000  0.31250000  0.18750000       0.023
  -0.18750000  0.31250000  0.18750000       0.023
   0.43750000  0.43750000  0.18750000       0.012
  -0.43750000  0.43750000  0.18750000       0.023
  -0.31250000  0.43750000  0.18750000       0.023
  -0.18750000  0.43750000  0.18750000       0.023
  -0.43750000 -0.43750000  0.18750000       0.012
  -0.31250000 -0.43750000  0.18750000       0.023
  -0.31250000 -0.31250000  0.18750000       0.012
   0.31250000  0.31250000  0.31250000       0.004
   0.43750000  0.31250000  0.31250000       0.012
  -0.43750000  0.31250000  0.31250000       0.012
  -0.31250000  0.31250000  0.31250000       0.012
   0.43750000  0.43750000  0.31250000       0.012
  -0.43750000  0.43750000  0.31250000       0.023
  -0.31250000  0.43750000  0.31250000       0.023
  -0.43750000 -0.43750000  0.31250000       0.012
   0.43750000  0.43750000  0.43750000       0.004
  -0.43750000  0.43750000  0.43750000       0.012

 position of ions in fractional coordinates (direct lattice)
   0.00000000  0.00000000  0.00000000
   0.25000000  0.25000000  0.25000000

 position of ions in cartesian coordinates  (Angst):
   0.00000000  0.00000000  0.00000000
   1.36714950  1.36714950  1.36714950

 k-point  1 :   0.0625 0.0625 0.0625  plane waves:     606
 k-point  2 :   0.1875 0.0625 0.0625  plane waves:     598
 k-point  3 :   0.3125 0.0625 0.0625  plane waves:     605
 k-point  4 :   0.4375 0.0625 0.0625  plane waves:     606
 k-point  5 :  -0.4375 0.0625 0.0625  plane waves:     606
 k-point  6 :  -0.3125 0.0625 0.0625  plane waves:     606
 k-point  7 :  -0.1875 0.0625 0.0625  plane waves:     601
 k-point  8 :  -0.0625 0.0625 0.0625  plane waves:     599
 k-point  9 :   0.1875 0.1875 0.0625  plane waves:     595
 k-point 10 :   0.3125 0.1875 0.0625  plane waves:     603
 k-point 11 :   0.4375 0.1875 0.0625  plane waves:     611
 k-point 12 :  -0.4375 0.1875 0.0625  plane waves:     604
 k-point 13 :  -0.3125 0.1875 0.0625  plane waves:     607
 k-point 14 :  -0.1875 0.1875 0.0625  plane waves:     609
 k-point 15 :  -0.0625 0.1875 0.0625  plane waves:     599
 k-point 16 :   0.3125 0.3125 0.0625  plane waves:     609
 k-point 17 :   0.4375 0.3125 0.0625  plane waves:     608
 k-point 18 :  -0.4375 0.3125 0.0625  plane waves:     611
 k-point 19 :  -0.3125 0.3125 0.0625  plane waves:     611
 k-point 20 :  -0.1875 0.3125 0.0625  plane waves:     609
 k-point 21 :  -0.0625 0.3125 0.0625  plane waves:     607
 k-point 22 :   0.4375 0.4375 0.0625  plane waves:     614
 k-point 23 :  -0.4375 0.4375 0.0625  plane waves:     615
 k-point 24 :  -0.3125 0.4375 0.0625  plane waves:     611
 k-point 25 :  -0.1875 0.4375 0.0625  plane waves:     609
 k-point 26 :  -0.0625 0.4375 0.0625  plane waves:     604
 k-point 27 :  -0.4375-0.4375 0.0625  plane waves:     612
 k-point 28 :  -0.3125-0.4375 0.0625  plane waves:     611
 k-point 29 :  -0.1875-0.4375 0.0625  plane waves:     608
 k-point 30 :  -0.3125-0.3125 0.0625  plane waves:     611
 k-point 31 :  -0.1875-0.3125 0.0625  plane waves:     606
 k-point 32 :  -0.1875-0.1875 0.0625  plane waves:     599
 k-point 33 :   0.1875 0.1875 0.1875  plane waves:     592
 k-point 34 :   0.3125 0.1875 0.1875  plane waves:     607
 k-point 35 :   0.4375 0.1875 0.1875  plane waves:     609
 k-point 36 :  -0.4375 0.1875 0.1875  plane waves:     603
 k-point 37 :  -0.3125 0.1875 0.1875  plane waves:     608
 k-point 38 :  -0.1875 0.1875 0.1875  plane waves:     608
 k-point 39 :   0.3125 0.3125 0.1875  plane waves:     606
 k-point 40 :   0.4375 0.3125 0.1875  plane waves:     609
 k-point 41 :  -0.4375 0.3125 0.1875  plane waves:     609
 k-point 42 :  -0.3125 0.3125 0.1875  plane waves:     613
 k-point 43 :  -0.1875 0.3125 0.1875  plane waves:     610
 k-point 44 :   0.4375 0.4375 0.1875  plane waves:     607
 k-point 45 :  -0.4375 0.4375 0.1875  plane waves:     611
 k-point 46 :  -0.3125 0.4375 0.1875  plane waves:     615
 k-point 47 :  -0.1875 0.4375 0.1875  plane waves:     613
 k-point 48 :  -0.4375-0.4375 0.1875  plane waves:     615
 k-point 49 :  -0.3125-0.4375 0.1875  plane waves:     612
 k-point 50 :  -0.3125-0.3125 0.1875  plane waves:     612
 k-point 51 :   0.3125 0.3125 0.3125  plane waves:     607
 k-point 52 :   0.4375 0.3125 0.3125  plane waves:     607
 k-point 53 :  -0.4375 0.3125 0.3125  plane waves:     608
 k-point 54 :  -0.3125 0.3125 0.3125  plane waves:     610
 k-point 55 :   0.4375 0.4375 0.3125  plane waves:     605
 k-point 56 :  -0.4375 0.4375 0.3125  plane waves:     609
 k-point 57 :  -0.3125 0.4375 0.3125  plane waves:     608
 k-point 58 :  -0.4375-0.4375 0.3125  plane waves:     609
 k-point 59 :   0.4375 0.4375 0.4375  plane waves:     604
 k-point 60 :  -0.4375 0.4375 0.4375  plane waves:     605

 maximum and minimum number of plane-waves per node :       615      592

 maximum number of plane-waves:       615
 maximum index in each direction:
   IXMAX=    6   IYMAX=    6   IZMAX=    5
   IXMIN=   -6   IYMIN=   -6   IZMIN=   -6

 serial   3D FFT for wavefunctions
 parallel 3D FFT for charge:
    minimum data exchange during FFTs selected (reduces bandwidth)

 Broyden mixing: mesh for mixing (old mesh)
   NGX = 11   NGY = 11   NGZ = 11
  (NGX  = 36   NGY  = 36   NGZ  = 36)
  gives a total of   1331 points

 initial charge density was supplied:
 charge density of overlapping atoms calculated
 number of electron       8.0000000 magnetization
 keeping initial charge density in first step

 Maximum index for augmentation-charges          733 (set IRDMAX)

 First call to EWALD:  gamma=   0.515
 Maximum number of real-space cells 3x 3x 3
 Maximum number of reciprocal cells 3x 3x 3

--------------------------------------- Iteration      1(   1)  ---------------------------------------

 eigenvalue-minimisations  :   960
 total energy-change (2. order) : 0.2781391E+01  (-0.2657954E+03)
 number of electron       8.0000000 magnetization
 augmentation part        8.0000000 magnetization

 Free energy of the ion-electron system (eV)
  alpha Z        PSCENC =         3.29341010
  Ewald energy   TEWEN  =      -226.95029702
  -Hartree energ DENC   =       -11.32230323
  -exchange      EXHF   =         0.00000000
  -V(xc)+E(xc)   XCENC  =       -18.68488566
  PAW double counting   =        65.95520812      -30.76852678
  entropy T*S    EENTRO =        -0.00959765
  eigenvalues    EBANDS =        15.13712937
  atomic energy  EATOM  =       206.13125414
  Solvation  Ediel_sol  =         0.00000000
  free energy    TOTEN  =         2.78139140 eV

  energy without entropy =        2.79098905  energy(sigma->0) =        2.78619022

[...]

 eigenvalue-minimisations  :  1488
 total energy-change (2. order) :-0.1363400E+02  (-0.1322387E+02)
 number of electron       8.0000000 magnetization
 augmentation part        8.0000000 magnetization

[...]

 Broyden mixing:
  rms(total) = 0.29564E+00    rms(broyden)= 0.29563E+00
  rms(prec ) = 0.85260E+00
  weight for this iteration     100.00

[...]

 eigenvalues of (default mixing * dielectric matrix)
  average eigenvalue GAMMA=   2.4438
  2.4438

[...]

 eigenvalue-minimisations  :  1200
 total energy-change (2. order) : 0.5363016E-01  (-0.1417036E-01)
 number of electron       7.9999992 magnetization
 augmentation part       -0.4574114 magnetization

[...]

 Broyden mixing:
  rms(total) = 0.25089E-02    rms(broyden)= 0.25080E-02
  rms(prec ) = 0.83079E-02
  weight for this iteration     100.00

 eigenvalues of (default mixing * dielectric matrix)
  average eigenvalue GAMMA=   2.1218
  1.3479  2.8007  2.2168

[...]

--------------------------------------- Iteration      1(   9)  ---------------------------------------

 eigenvalue-minimisations  :   792
 total energy-change (2. order) :-0.9720857E-04  (-0.9941606E-05)
 number of electron       7.9999992 magnetization
 augmentation part       -0.4583867 magnetization

 Free energy of the ion-electron system (eV)
  alpha Z        PSCENC =         3.29341010
  Ewald energy   TEWEN  =      -226.95029702
  -Hartree energ DENC   =       -15.15953145
  -exchange      EXHF   =         0.00000000
  -V(xc)+E(xc)   XCENC  =       -18.05817841
  PAW double counting   =        73.68379024      -38.70287909
  entropy T*S    EENTRO =        -0.00003316
  eigenvalues    EBANDS =         4.91466330
  atomic energy  EATOM  =       206.13125414
  Solvation  Ediel_sol  =         0.00000000
  free energy    TOTEN  =       -10.84780135 eV

  energy without entropy =      -10.84776819  energy(sigma->0) =      -10.84778477

 average (electrostatic) potential at core
  the test charge radii are     0.9892
  (the norm of the test charge is              1.0000)
       1 -83.4861       2 -83.4861

 E-fermi :   5.9389     XC(G=0):  -9.3307     alpha+bet :-11.7326

 k-point     1 :       0.0625    0.0625    0.0625
  band No.  band energies     occupation
      1      -6.1497      2.00000
      2       5.0849      2.00000
      3       5.5336      1.99584
      4       5.5336      1.99584
      5       8.2140      0.00000
      6       8.2957      0.00000
      7       8.2957      0.00000
      8       9.1552      0.00000

[...]

 k-point    60 :      -0.4375    0.4375    0.4375
  band No.  band energies     occupation
      1      -3.7673      2.00000
      2      -1.1381      2.00000
      3       3.2455      2.00000
      4       4.1983      2.00000
      5       7.8250      0.00000
      6       9.1323      0.00000
      7       9.5754      0.00000
      8      13.7521      0.00000

 soft charge-density along one line, spin component           1
         0         1         2         3         4         5         6         7         8         9
 total charge-density along one line

------------------------ aborting loop because EDIFF is reached ----------------------------------------

  FORCE on cell =-STRESS in cart. coord.  units (eV):
  Direction    XX          YY          ZZ          XY          YZ          ZX
  Alpha Z     3.29341     3.29341     3.29341
  Ewald     -75.65013   -75.65013   -75.65013    -0.00000    -0.00000     0.00000
  Hartree     5.05649     5.05649     5.05649     0.00000     0.00000     0.00000
  E(xc)     -25.24614   -25.24614   -25.24614    -0.00000    -0.00000    -0.00000
  Local     -29.53379   -29.53379   -29.53379     0.00004     0.00004     0.00004
  n-local    77.37194    79.92251    75.15428     1.04487    -1.13538     0.04718
  augment   -11.65034   -11.65034   -11.65034    -0.00003    -0.00003    -0.00003
  Kinetic    57.73538    55.74600    55.24612     0.81073    -0.90580     0.04665
  Fock        0.00000     0.00000     0.00000     0.00000     0.00000     0.00000
  Total      -0.00509    -0.00509    -0.00509     0.00000    -0.00000    -0.00000
  in kB      -0.19960    -0.19960    -0.19960     0.00000    -0.00000    -0.00000

 VOLUME and BASIS-vectors are now :
  energy-cutoff  :      350.00
  volume of cell :       40.89
      direct lattice vectors                 reciprocal lattice vectors
     0.000000000  2.734299000  2.734299000    -0.182862225  0.182862225  0.182862225
     2.734299000  0.000000000  2.734299000     0.182862225 -0.182862225  0.182862225
     2.734299000  2.734299000  0.000000000     0.182862225  0.182862225 -0.182862225

  length of vectors
     3.866882729  3.866882729  3.866882729     0.316726665  0.316726665  0.316726665

 FORCES acting on ions
    electron-ion (+dipol)            ewald-force                    non-local-force                 convergence-correction
   0.157E-05 0.157E-05 0.159E-05   -.160E-15 -.195E-14 0.216E-14   0.105E-16 0.105E-16 0.104E-16   -.450E-06 -.450E-06 -.450E-06
   -.157E-05 -.157E-05 -.159E-05   0.456E-15 0.196E-14 -.264E-14   -.100E-16 -.100E-16 -.112E-16   0.450E-06 0.450E-06 0.450E-06
   -.207E-13 -.350E-13 -.241E-13   0.296E-15 0.148E-16 -.479E-15   0.532E-18 0.532E-18 -.827E-18   -.156E-14 -.998E-16 -.118E-14

 POSITION                                       TOTAL-FORCE (eV/Angst)
      0.00000      0.00000      0.00000         0.000000      0.000000     -0.000000
      1.36715      1.36715      1.36715        -0.000000     -0.000000      0.000000
    total drift:                               -0.000000     -0.000000     -0.000000

  FREE ENERGIE OF THE ION-ELECTRON SYSTEM (eV)
  free  energy   TOTEN  =       -10.84780135 eV

  energy  without entropy=      -10.84776819  energy(sigma->0) =      -10.84778477

 reached required accuracy - stopping structural energy minimisation
 writing wavefunctions