 vasp.5.4.4.18Apr17-6-g9f103f2a35 (build Dec 09 2018 21:25:21) complex

 executed on IFC18.0.1.163_CrayMP date 2019.04.01  16:02:26

 INCAR:
 POTCAR:   PAW_PBE Si 05Jan2001

 POTCAR:   PAW_PBE Si 05Jan2001
   VRHFIN =Si: s2p2

   TITEL  = PAW_PBE Si 05Jan2001
   POMASS =   28.085; ZVAL   =    4.000    mass and valenz
   ENMAX  =  245.345; ENMIN  =  184.009 eV
   QCUT   =   -4.246; QGAM   =    8.493    optimization parameters

   Description
     l     E      TYP  RCUT    TYP  RCUT
     0   .000     23  1.900
     0   .000     23  1.900
     1   .000     23  1.900
     1   .000     23  1.900
     2   .000      7  1.900

 PAW_PBE Si 05Jan2001                   :

 POSCAR: Si2
  positions in direct lattice
 exchange correlation table for  LEXCH =        8
   RHO(1)=    0.500       N(1)  =     2000
   RHO(2)=  100.500       N(2)  =     4000

 ion  position               nearest neighbor table
   1  0.000  0.000  0.000-   2 2.51   2 2.51   2 2.51   2 2.51
   2  0.250  0.250  0.250-   1 2.51   1 2.51   1 2.51   1 2.51

  LATTYP: Found a face centered cubic cell.
 ALAT       =     5.7967140000

  Lattice vectors:

 A1 = (   0.0000000000,   2.8983570000,   2.8983570000)
 A2 = (   2.8983570000,   0.0000000000,   2.8983570000)
 A3 = (   2.8983570000,   2.8983570000,   0.0000000000)

Analysis of symmetry for initial positions (statically):
 Subroutine PRICEL returns:
 Original cell was already a primitive cell.

 Routine SETGRP: Setting up the symmetry group for a
 face centered cubic supercell.

 Subroutine GETGRP returns: Found 48 space group operations
 (whereof 24 operations were pure point group operations)
 out of a pool of 48 trial point group operations.

The static configuration has the point symmetry T_d .
 The point group associated with its full space group is O_h .

Analysis of symmetry for dynamics (positions and initial velocities):
 Subroutine PRICEL returns:
 Original cell was already a primitive cell.

 Routine SETGRP: Setting up the symmetry group for a
 face centered cubic supercell.

 Subroutine GETGRP returns: Found 48 space group operations
 (whereof 24 operations were pure point group operations)
 out of a pool of 48 trial point group operations.

The dynamic configuration has the point symmetry T_d .
 The point group associated with its full space group is O_h .

 Subroutine INISYM returns: Found 48 space group operations
 (whereof 24 operations are pure point group operations),
 and found     1 'primitive' translations

 KPOINTS: Automatic kpoint scheme

Automatic generation of k-mesh.
Space group operators:
 irot       det(A)        alpha          n_x          n_y          n_z        tau_x        tau_y        tau_z
    1     1.000000     0.000000     1.000000     0.000000     0.000000     0.000000     0.000000     0.000000
    2     1.000000   120.000000    -0.577350    -0.577350    -0.577350     0.000000     0.000000     0.000000
    3     1.000000   120.000000     0.577350     0.577350     0.577350     0.000000     0.000000     0.000000
    4    -1.000000    90.000000     0.000000     0.000000    -1.000000     0.000000     0.000000     0.000000
    5    -1.000000   180.000000    -0.000000     0.707107     0.707107     0.000000     0.000000     0.000000
    6    -1.000000    90.000000     0.000000     1.000000     0.000000     0.000000     0.000000     0.000000
    7     1.000000   180.000000     0.000000    -0.000000     1.000000     0.000000     0.000000     0.000000
    8     1.000000   120.000000    -0.577350     0.577350     0.577350     0.000000     0.000000     0.000000
    9     1.000000   120.000000    -0.577350     0.577350    -0.577350     0.000000     0.000000     0.000000
   10    -1.000000    90.000000     0.000000     0.000000     1.000000     0.000000     0.000000     0.000000
   11    -1.000000    90.000000    -1.000000    -0.000000    -0.000000     0.000000     0.000000     0.000000
   12    -1.000000   180.000000     0.707107     0.000000     0.707107     0.000000     0.000000     0.000000
   13     1.000000   120.000000     0.577350    -0.577350     0.577350     0.000000     0.000000     0.000000
   14     1.000000   120.000000    -0.577350    -0.577350     0.577350     0.000000     0.000000     0.000000
   15     1.000000   180.000000     1.000000     0.000000     0.000000     0.000000     0.000000     0.000000
   16    -1.000000    90.000000     0.000000    -1.000000     0.000000     0.000000     0.000000     0.000000
   17    -1.000000   180.000000     0.707107     0.707107     0.000000     0.000000     0.000000     0.000000
   18    -1.000000    90.000000     1.000000     0.000000    -0.000000     0.000000     0.000000     0.000000
   19     1.000000   120.000000     0.577350    -0.577350    -0.577350     0.000000     0.000000     0.000000
   20     1.000000   180.000000     0.000000    -1.000000    -0.000000     0.000000     0.000000     0.000000
   21     1.000000   120.000000     0.577350     0.577350    -0.577350     0.000000     0.000000     0.000000
   22    -1.000000   180.000000     0.000000    -0.707107     0.707107     0.000000     0.000000     0.000000
   23    -1.000000   180.000000     0.707107    -0.707107    -0.000000     0.000000     0.000000     0.000000
   24    -1.000000   180.000000     0.707107     0.000000    -0.707107     0.000000     0.000000     0.000000
   25    -1.000000     0.000000     1.000000     0.000000     0.000000     0.250000     0.250000     0.250000
   26    -1.000000   120.000000    -0.577350    -0.577350    -0.577350     0.250000     0.250000     0.250000
   27    -1.000000   120.000000     0.577350     0.577350     0.577350     0.250000     0.250000     0.250000
   28     1.000000    90.000000     0.000000     0.000000    -1.000000     0.250000     0.250000     0.250000
   29     1.000000   180.000000    -0.000000     0.707107     0.707107     0.250000     0.250000     0.250000
   30     1.000000    90.000000     0.000000     1.000000     0.000000     0.250000     0.250000     0.250000
   31    -1.000000   180.000000     0.000000    -0.000000     1.000000     0.250000     0.250000     0.250000
   32    -1.000000   120.000000    -0.577350     0.577350     0.577350     0.250000     0.250000     0.250000
   33    -1.000000   120.000000    -0.577350     0.577350    -0.577350     0.250000     0.250000     0.250000
   34     1.000000    90.000000     0.000000     0.000000     1.000000     0.250000     0.250000     0.250000
   35     1.000000    90.000000    -1.000000    -0.000000    -0.000000     0.250000     0.250000     0.250000
   36     1.000000   180.000000     0.707107     0.000000     0.707107     0.250000     0.250000     0.250000
   37    -1.000000   120.000000     0.577350    -0.577350     0.577350     0.250000     0.250000     0.250000
   38    -1.000000   120.000000    -0.577350    -0.577350     0.577350     0.250000     0.250000     0.250000
   39    -1.000000   180.000000     1.000000     0.000000     0.000000     0.250000     0.250000     0.250000
   40     1.000000    90.000000     0.000000    -1.000000     0.000000     0.250000     0.250000     0.250000
   41     1.000000   180.000000     0.707107     0.707107     0.000000     0.250000     0.250000     0.250000
   42     1.000000    90.000000     1.000000     0.000000    -0.000000     0.250000     0.250000     0.250000
   43    -1.000000   120.000000     0.577350    -0.577350    -0.577350     0.250000     0.250000     0.250000
   44    -1.000000   180.000000     0.000000    -1.000000    -0.000000     0.250000     0.250000     0.250000
   45    -1.000000   120.000000     0.577350     0.577350    -0.577350     0.250000     0.250000     0.250000
   46     1.000000   180.000000     0.000000    -0.707107     0.707107     0.250000     0.250000     0.250000
   47     1.000000   180.000000     0.707107    -0.707107    -0.000000     0.250000     0.250000     0.250000
   48     1.000000   180.000000     0.707107     0.000000    -0.707107     0.250000     0.250000     0.250000

 Subroutine IBZKPT returns following result:

 Found     60 irreducible k-points:

 Following reciprocal coordinates:
            Coordinates               Weight
  0.062500  0.062500  0.062500     96.000000
  0.187500  0.062500  0.062500    288.000000
  0.312500  0.062500  0.062500    288.000000
  0.437500  0.062500  0.062500    288.000000
 -0.437500  0.062500  0.062500    288.000000
 -0.312500  0.062500  0.062500    288.000000
 -0.187500  0.062500  0.062500    288.000000
 -0.062500  0.062500  0.062500    288.000000
  0.187500  0.187500  0.062500    288.000000
  0.312500  0.187500  0.062500    576.000000
  0.437500  0.187500  0.062500    576.000000
 -0.437500  0.187500  0.062500    576.000000
 -0.312500  0.187500  0.062500    576.000000
 -0.187500  0.187500  0.062500    576.000000
 -0.062500  0.187500  0.062500    576.000000
  0.312500  0.312500  0.062500    288.000000
  0.437500  0.312500  0.062500    576.000000
 -0.437500  0.312500  0.062500    576.000000
 -0.312500  0.312500  0.062500    576.000000
 -0.187500  0.312500  0.062500    576.000000
 -0.062500  0.312500  0.062500    576.000000
  0.437500  0.437500  0.062500    288.000000
 -0.437500  0.437500  0.062500    576.000000
 -0.312500  0.437500  0.062500    576.000000
 -0.187500  0.437500  0.062500    576.000000
 -0.062500  0.437500  0.062500    576.000000
 -0.437500 -0.437500  0.062500    288.000000
 -0.312500 -0.437500  0.062500    576.000000
 -0.187500 -0.437500  0.062500    576.000000
 -0.312500 -0.312500  0.062500    288.000000
 -0.187500 -0.312500  0.062500    576.000000
 -0.187500 -0.187500  0.062500    288.000000
  0.187500  0.187500  0.187500     96.000000
  0.312500  0.187500  0.187500    288.000000
  0.437500  0.187500  0.187500    288.000000
 -0.437500  0.187500  0.187500    288.000000
 -0.312500  0.187500  0.187500    288.000000
 -0.187500  0.187500  0.187500    288.000000
  0.312500  0.312500  0.187500    288.000000
  0.437500  0.312500  0.187500    576.000000
 -0.437500  0.312500  0.187500    576.000000
 -0.312500  0.312500  0.187500    576.000000
 -0.187500  0.312500  0.187500    576.000000
  0.437500  0.437500  0.187500    288.000000
 -0.437500  0.437500  0.187500    576.000000
 -0.312500  0.437500  0.187500    576.000000
 -0.187500  0.437500  0.187500    576.000000
 -0.437500 -0.437500  0.187500    288.000000
 -0.312500 -0.437500  0.187500    576.000000
 -0.312500 -0.312500  0.187500    288.000000
  0.312500  0.312500  0.312500     96.000000
  0.437500  0.312500  0.312500    288.000000
 -0.437500  0.312500  0.312500    288.000000
 -0.312500  0.312500  0.312500    288.000000
  0.437500  0.437500  0.312500    288.000000
 -0.437500  0.437500  0.312500    576.000000
 -0.312500  0.437500  0.312500    576.000000
 -0.437500 -0.437500  0.312500    288.000000
  0.437500  0.437500  0.437500     96.000000
 -0.437500  0.437500  0.437500    288.000000

 Following cartesian coordinates:
            Coordinates               Weight
  0.010782  0.010782  0.010782     96.000000
 -0.010782  0.032346  0.032346    288.000000
 -0.032346  0.053910  0.053910    288.000000
 -0.053910  0.075474  0.075474    288.000000
  0.097038 -0.075474 -0.075474    288.000000
  0.075474 -0.053910 -0.053910    288.000000
[...]
  -0.01078197  0.03234591  0.11860168       0.023
   0.14016562 -0.11860168 -0.03234591       0.023
   0.11860168 -0.09703774 -0.01078197       0.023
   0.09703774 -0.07547379  0.01078197       0.023
   0.07547379 -0.05390985  0.03234591       0.023
   0.01078197  0.01078197  0.14016562       0.012
   0.16172956 -0.14016562 -0.01078197       0.023
   0.14016562 -0.11860168  0.01078197       0.023
   0.11860168 -0.09703774  0.03234591       0.023
   0.09703774 -0.07547379  0.05390985       0.023
   0.01078197  0.01078197 -0.16172956       0.012
  -0.01078197  0.03234591 -0.14016562       0.023
  -0.03234591  0.05390985 -0.11860168       0.023
   0.01078197  0.01078197 -0.11860168       0.012
  -0.01078197  0.03234591 -0.09703774       0.023
   0.01078197  0.01078197 -0.07547379       0.012
   0.03234591  0.03234591  0.03234591       0.004
   0.01078197  0.05390985  0.05390985       0.012
  -0.01078197  0.07547379  0.07547379       0.012
   0.14016562 -0.07547379 -0.07547379       0.012
   0.11860168 -0.05390985 -0.05390985       0.012
   0.09703774 -0.03234591 -0.03234591       0.012
   0.03234591  0.03234591  0.07547379       0.012
   0.01078197  0.05390985  0.09703774       0.023
   0.16172956 -0.09703774 -0.05390985       0.023
   0.14016562 -0.07547379 -0.03234591       0.023
   0.11860168 -0.05390985 -0.01078197       0.023
   0.03234591  0.03234591  0.11860168       0.012
   0.18329350 -0.11860168 -0.03234591       0.023
   0.16172956 -0.09703774 -0.01078197       0.023
   0.14016562 -0.07547379  0.01078197       0.023
   0.03234591  0.03234591 -0.18329350       0.012
   0.01078197  0.05390985 -0.16172956       0.023
   0.03234591  0.03234591 -0.14016562       0.012
   0.05390985  0.05390985  0.05390985       0.004
   0.03234591  0.07547379  0.07547379       0.012
   0.18329350 -0.07547379 -0.07547379       0.012
   0.16172956 -0.05390985 -0.05390985       0.012
   0.05390985  0.05390985  0.09703774       0.012
   0.20485744 -0.09703774 -0.05390985       0.023
   0.18329350 -0.07547379 -0.03234591       0.023
   0.05390985  0.05390985 -0.20485744       0.012
   0.07547379  0.07547379  0.07547379       0.004
   0.22642138 -0.07547379 -0.07547379       0.012

 k-points in reciprocal lattice and weights: Automatic kpoint scheme
   0.06250000  0.06250000  0.06250000       0.004
   0.18750000  0.06250000  0.06250000       0.012
   0.31250000  0.06250000  0.06250000       0.012
   0.43750000  0.06250000  0.06250000       0.012
  -0.43750000  0.06250000  0.06250000       0.012
  -0.31250000  0.06250000  0.06250000       0.012
  -0.18750000  0.06250000  0.06250000       0.012
  -0.06250000  0.06250000  0.06250000       0.012
   0.18750000  0.18750000  0.06250000       0.012
   0.31250000  0.18750000  0.06250000       0.023
   0.43750000  0.18750000  0.06250000       0.023
  -0.43750000  0.18750000  0.06250000       0.023
  -0.31250000  0.18750000  0.06250000       0.023
  -0.18750000  0.18750000  0.06250000       0.023
  -0.06250000  0.18750000  0.06250000       0.023
   0.31250000  0.31250000  0.06250000       0.012
   0.43750000  0.31250000  0.06250000       0.023
  -0.43750000  0.31250000  0.06250000       0.023
  -0.31250000  0.31250000  0.06250000       0.023
  -0.18750000  0.31250000  0.06250000       0.023
  -0.06250000  0.31250000  0.06250000       0.023
   0.43750000  0.43750000  0.06250000       0.012
  -0.43750000  0.43750000  0.06250000       0.023
  -0.31250000  0.43750000  0.06250000       0.023
  -0.18750000  0.43750000  0.06250000       0.023
  -0.06250000  0.43750000  0.06250000       0.023
  -0.43750000 -0.43750000  0.06250000       0.012
  -0.31250000 -0.43750000  0.06250000       0.023
  -0.18750000 -0.43750000  0.06250000       0.023
  -0.31250000 -0.31250000  0.06250000       0.012
  -0.18750000 -0.31250000  0.06250000       0.023
  -0.18750000 -0.18750000  0.06250000       0.012
   0.18750000  0.18750000  0.18750000       0.004
   0.31250000  0.18750000  0.18750000       0.012
   0.43750000  0.18750000  0.18750000       0.012
  -0.43750000  0.18750000  0.18750000       0.012
  -0.31250000  0.18750000  0.18750000       0.012
  -0.18750000  0.18750000  0.18750000       0.012
   0.31250000  0.31250000  0.18750000       0.012
   0.43750000  0.31250000  0.18750000       0.023
  -0.43750000  0.31250000  0.18750000       0.023
  -0.31250000  0.31250000  0.18750000       0.023
  -0.18750000  0.31250000  0.18750000       0.023
   0.43750000  0.43750000  0.18750000       0.012
  -0.43750000  0.43750000  0.18750000       0.023
  -0.31250000  0.43750000  0.18750000       0.023
  -0.18750000  0.43750000  0.18750000       0.023
  -0.43750000 -0.43750000  0.18750000       0.012
  -0.31250000 -0.43750000  0.18750000       0.023
  -0.31250000 -0.31250000  0.18750000       0.012
   0.31250000  0.31250000  0.31250000       0.004
   0.43750000  0.31250000  0.31250000       0.012
  -0.43750000  0.31250000  0.31250000       0.012
  -0.31250000  0.31250000  0.31250000       0.012
   0.43750000  0.43750000  0.31250000       0.012
  -0.43750000  0.43750000  0.31250000       0.023
  -0.31250000  0.43750000  0.31250000       0.023
  -0.43750000 -0.43750000  0.31250000       0.012
   0.43750000  0.43750000  0.43750000       0.004
  -0.43750000  0.43750000  0.43750000       0.012

 position of ions in fractional coordinates (direct lattice)
   0.00000000  0.00000000  0.00000000
   0.25000000  0.25000000  0.25000000

 position of ions in cartesian coordinates  (Angst):
   0.00000000  0.00000000  0.00000000
   1.44917850  1.44917850  1.44917850

 k-point  1 :   0.0625 0.0625 0.0625  plane waves:     725
 k-point  2 :   0.1875 0.0625 0.0625  plane waves:     715
 k-point  3 :   0.3125 0.0625 0.0625  plane waves:     728
 k-point  4 :   0.4375 0.0625 0.0625  plane waves:     736
 k-point  5 :  -0.4375 0.0625 0.0625  plane waves:     727
 k-point  6 :  -0.3125 0.0625 0.0625  plane waves:     734
 k-point  7 :  -0.1875 0.0625 0.0625  plane waves:     724
 k-point  8 :  -0.0625 0.0625 0.0625  plane waves:     724
 k-point  9 :   0.1875 0.1875 0.0625  plane waves:     713
 k-point 10 :   0.3125 0.1875 0.0625  plane waves:     721
 k-point 11 :   0.4375 0.1875 0.0625  plane waves:     720
 k-point 12 :  -0.4375 0.1875 0.0625  plane waves:     725
 k-point 13 :  -0.3125 0.1875 0.0625  plane waves:     723
 k-point 14 :  -0.1875 0.1875 0.0625  plane waves:     725
 k-point 15 :  -0.0625 0.1875 0.0625  plane waves:     726
 k-point 16 :   0.3125 0.3125 0.0625  plane waves:     718
 k-point 17 :   0.4375 0.3125 0.0625  plane waves:     723
 k-point 18 :  -0.4375 0.3125 0.0625  plane waves:     722
 k-point 19 :  -0.3125 0.3125 0.0625  plane waves:     723
 k-point 20 :  -0.1875 0.3125 0.0625  plane waves:     725
 k-point 21 :  -0.0625 0.3125 0.0625  plane waves:     724
 k-point 22 :   0.4375 0.4375 0.0625  plane waves:     724
 k-point 23 :  -0.4375 0.4375 0.0625  plane waves:     724
 k-point 24 :  -0.3125 0.4375 0.0625  plane waves:     724
 k-point 25 :  -0.1875 0.4375 0.0625  plane waves:     719
 k-point 26 :  -0.0625 0.4375 0.0625  plane waves:     728
 k-point 27 :  -0.4375-0.4375 0.0625  plane waves:     730
 k-point 28 :  -0.3125-0.4375 0.0625  plane waves:     726
 k-point 29 :  -0.1875-0.4375 0.0625  plane waves:     724
 k-point 30 :  -0.3125-0.3125 0.0625  plane waves:     720
 k-point 31 :  -0.1875-0.3125 0.0625  plane waves:     726
 k-point 32 :  -0.1875-0.1875 0.0625  plane waves:     720
 k-point 33 :   0.1875 0.1875 0.1875  plane waves:     718
 k-point 34 :   0.3125 0.1875 0.1875  plane waves:     726
 k-point 35 :   0.4375 0.1875 0.1875  plane waves:     731
 k-point 36 :  -0.4375 0.1875 0.1875  plane waves:     721
 k-point 37 :  -0.3125 0.1875 0.1875  plane waves:     722
 k-point 38 :  -0.1875 0.1875 0.1875  plane waves:     724
 k-point 39 :   0.3125 0.3125 0.1875  plane waves:     725
 k-point 40 :   0.4375 0.3125 0.1875  plane waves:     725
 k-point 41 :  -0.4375 0.3125 0.1875  plane waves:     723
 k-point 42 :  -0.3125 0.3125 0.1875  plane waves:     726
 k-point 43 :  -0.1875 0.3125 0.1875  plane waves:     722
 k-point 44 :   0.4375 0.4375 0.1875  plane waves:     721
 k-point 45 :  -0.4375 0.4375 0.1875  plane waves:     727
 k-point 46 :  -0.3125 0.4375 0.1875  plane waves:     721
 k-point 47 :  -0.1875 0.4375 0.1875  plane waves:     725
 k-point 48 :  -0.4375-0.4375 0.1875  plane waves:     721
 k-point 49 :  -0.3125-0.4375 0.1875  plane waves:     725
 k-point 50 :  -0.3125-0.3125 0.1875  plane waves:     721
 k-point 51 :   0.3125 0.3125 0.3125  plane waves:     742
 k-point 52 :   0.4375 0.3125 0.3125  plane waves:     732
 k-point 53 :  -0.4375 0.3125 0.3125  plane waves:     721
 k-point 54 :  -0.3125 0.3125 0.3125  plane waves:     721
 k-point 55 :   0.4375 0.4375 0.3125  plane waves:     722
 k-point 56 :  -0.4375 0.4375 0.3125  plane waves:     723
 k-point 57 :  -0.3125 0.4375 0.3125  plane waves:     720
 k-point 58 :  -0.4375-0.4375 0.3125  plane waves:     716
 k-point 59 :   0.4375 0.4375 0.4375  plane waves:     724
 k-point 60 :  -0.4375 0.4375 0.4375  plane waves:     728

 maximum and minimum number of plane-waves per node :       742      713

 maximum number of plane-waves:       742
 maximum index in each direction:
   IXMAX=    6   IYMAX=    6   IZMAX=    6
   IXMIN=   -6   IYMIN=   -6   IZMIN=   -6

 serial   3D FFT for wavefunctions
 parallel 3D FFT for charge:
    minimum data exchange during FFTs selected (reduces bandwidth)

 Broyden mixing: mesh for mixing (old mesh)
   NGX = 13   NGY = 13   NGZ = 13
  (NGX  = 40   NGY  = 40   NGZ  = 40)
  gives a total of   2197 points

 initial charge density was supplied:
 charge density of overlapping atoms calculated
 number of electron       8.0000000 magnetization
 keeping initial charge density in first step

 Maximum index for augmentation-charges          721 (set IRDMAX)

 First call to EWALD:  gamma=   0.485
 Maximum number of real-space cells 3x 3x 3
 Maximum number of reciprocal cells 3x 3x 3

--------------------------------------- Iteration      1(   1)  ---------------------------------------

 eigenvalue-minimisations  :   960
 total energy-change (2. order) : 0.4472425E+01  (-0.2519358E+03)
 number of electron       8.0000000 magnetization
 augmentation part        8.0000000 magnetization

 Free energy of the ion-electron system (eV)
  alpha Z        PSCENC =         2.76521046
  Ewald energy   TEWEN  =      -214.10404936
  -Hartree energ DENC   =       -14.13810805
  -exchange      EXHF   =         0.00000000
  -V(xc)+E(xc)   XCENC  =       -19.32592350
  PAW double counting   =        65.95520812      -30.76852678
  entropy T*S    EENTRO =        -0.01214737
  eigenvalues    EBANDS =         7.96950719
  atomic energy  EATOM  =       206.13125414
  Solvation  Ediel_sol  =         0.00000000
  free energy    TOTEN  =         4.47242485 eV

  energy without entropy =        4.48457222  energy(sigma->0) =        4.47849854

[...]

 eigenvalue-minimisations  :  1496
 total energy-change (2. order) :-0.1487718E+02  (-0.1434913E+02)
 number of electron       8.0000000 magnetization
 augmentation part        8.0000000 magnetization

[...]

 Broyden mixing:
  rms(total) = 0.25464E+00    rms(broyden)= 0.25464E+00
  rms(prec ) = 0.69945E+00
  weight for this iteration     100.00

[...]

 eigenvalues of (default mixing * dielectric matrix)
  average eigenvalue GAMMA=   2.5436
  2.5436

[...]

 eigenvalue-minimisations  :  1200
 total energy-change (2. order) : 0.3182912E-01  (-0.7388256E-02)
 number of electron       8.0000008 magnetization
 augmentation part       -0.4591964 magnetization

[...]

 Broyden mixing:
  rms(total) = 0.26197E-02    rms(broyden)= 0.26196E-02
  rms(prec ) = 0.87304E-02
  weight for this iteration     100.00

 eigenvalues of (default mixing * dielectric matrix)
  average eigenvalue GAMMA=   2.1619
  1.2280  2.8941  2.3636

[...]

--------------------------------------- Iteration      1(   9)  ---------------------------------------

 eigenvalue-minimisations  :   792
 total energy-change (2. order) :-0.1531721E-03  (-0.1660225E-04)
 number of electron       8.0000008 magnetization
 augmentation part       -0.4598765 magnetization

 Free energy of the ion-electron system (eV)
  alpha Z        PSCENC =         2.76521046
  Ewald energy   TEWEN  =      -214.10404936
  -Hartree energ DENC   =       -17.33310749
  -exchange      EXHF   =         0.00000000
  -V(xc)+E(xc)   XCENC  =       -18.82302705
  PAW double counting   =        69.15956399      -34.05286062
  entropy T*S    EENTRO =        -0.00000427
  eigenvalues    EBANDS =        -4.29065213
  atomic energy  EATOM  =       206.13125414
  Solvation  Ediel_sol  =         0.00000000
  free energy    TOTEN  =       -10.54767232 eV

  energy without entropy =      -10.54766806  energy(sigma->0) =      -10.54767019

 average (electrostatic) potential at core
  the test charge radii are     0.9892
  (the norm of the test charge is              1.0000)
       1 -85.3097       2 -85.3097

 E-fermi :   4.4398     XC(G=0):  -8.6635     alpha+bet : -9.8509

 k-point     1 :       0.0625    0.0625    0.0625
  band No.  band energies     occupation
      1      -6.6677      2.00000
      2       3.3995      2.00000
      3       3.9463      1.99952
      4       3.9463      1.99952
      5       5.6437      0.00000
      6       6.5784      0.00000
      7       6.5784      0.00000
      8       6.6673      0.00000

[...]

 k-point    60 :      -0.4375    0.4375    0.4375
  band No.  band energies     occupation
      1      -4.6964      2.00000
      2      -2.1079      2.00000
      3       1.9268      2.00000
      4       2.7967      2.00000
      5       5.7768      0.00000
      6       7.4105      0.00000
      7       7.8818      0.00000
      8      11.4369      0.00000

 soft charge-density along one line, spin component           1
         0         1         2         3         4         5         6         7         8         9
 total charge-density along one line

------------------------ aborting loop because EDIFF is reached ----------------------------------------

  FORCE on cell =-STRESS in cart. coord.  units (eV):
  Direction    XX          YY          ZZ          XY          YZ          ZX
  Alpha Z     2.76521     2.76521     2.76521
  Ewald     -71.36805   -71.36805   -71.36805    -0.00000     0.00000    -0.00000
  Hartree     5.78203     5.78203     5.78203     0.00000     0.00000     0.00000
  E(xc)     -24.32758   -24.32758   -24.32758    -0.00000    -0.00000    -0.00000
  Local     -32.19775   -32.19775   -32.19775     0.00003     0.00003     0.00003
  n-local    75.07134    77.62257    72.96658     0.88183    -0.97680     0.04152
  augment   -11.73775   -11.73775   -11.73775    -0.00002    -0.00002    -0.00002
  Kinetic    53.72218    53.50526    50.78881     0.96440    -1.07236     0.05174
  Fock        0.00000     0.00000     0.00000     0.00000     0.00000     0.00000
  Total      -3.19165    -3.19165    -3.19165     0.00000    -0.00000    -0.00000
  in kB    -105.01241  -105.01241  -105.01241     0.00000    -0.00000    -0.00000

 VOLUME and BASIS-vectors are now :
  energy-cutoff  :      350.00
  volume of cell :       48.70
      direct lattice vectors                 reciprocal lattice vectors
     0.000000000  2.898357000  2.898357000    -0.172511530  0.172511530  0.172511530
     2.898357000  0.000000000  2.898357000     0.172511530 -0.172511530  0.172511530
     2.898357000  2.898357000  0.000000000     0.172511530  0.172511530 -0.172511530

  length of vectors
     4.098895778  4.098895778  4.098895778     0.298798735  0.298798735  0.298798735

 FORCES acting on ions
    electron-ion (+dipol)            ewald-force                    non-local-force                 convergence-correction
   -.382E-06 -.382E-06 -.295E-06   0.561E-15 -.384E-14 0.130E-13   0.449E-17 0.102E-17 0.339E-17   -.192E-07 -.192E-07 -.192E-07
   0.382E-06 0.382E-06 0.295E-06   -.699E-15 0.396E-14 -.132E-13   0.427E-17 0.797E-18 -.105E-16   0.192E-07 0.192E-07 0.192E-07
   0.416E-13 0.331E-13 0.289E-13   -.137E-15 0.116E-15 -.209E-15   0.875E-17 0.181E-17 -.707E-17   0.729E-15 0.715E-15 0.851E-15

 POSITION                                       TOTAL-FORCE (eV/Angst)
      0.00000      0.00000      0.00000        -0.000000     -0.000000     -0.000000
      1.44918      1.44918      1.44918         0.000000      0.000000      0.000000
    total drift:                                0.000000      0.000000      0.000000

  FREE ENERGIE OF THE ION-ELECTRON SYSTEM (eV)
  free  energy   TOTEN  =       -10.54767232 eV

  energy  without entropy=      -10.54766806  energy(sigma->0) =      -10.54767019

 reached required accuracy - stopping structural energy minimisation
 writing wavefunctions